LAMMPS (22 Jul 2025 - Update 4)
OMP_NUM_THREADS environment is not set. Defaulting to 1 thread.
  using 1 OpenMP thread(s) per MPI task
package gpu 1 newton off
# mpirun -np 6 lmp -sf pair/gpu -pk gpu 1 newton off -in in.poly_comb

units           real
dimension       3
boundary        p p p
atom_style      full
comm_style      tiled
newton          off

bond_style      class2
angle_style     class2
dihedral_style  class2
improper_style  class2

pair_style      lj/class2/coul/long 12.0
special_bonds   lj/coul 0.0 0.0 1.0
pair_modify mix sixthpower

kspace_style    pppm 1.0e-5

neighbor        2.0 bin
neigh_modify every 1 delay 0 check yes one 10000 page 1000000

read_data	setup.data
Reading data file ...
  orthogonal box = (0 0 -42) to (80.6296 82.864 158)
  1 by 1 by 1 MPI processor grid
  reading atoms ...
  34140 atoms
  scanning bonds ...
  4 = max bonds/atom
  scanning angles ...
  18 = max angles/atom
  scanning dihedrals ...
  48 = max dihedrals/atom
  scanning impropers ...
  16 = max impropers/atom
  orthogonal box = (0 0 -42) to (80.6296 82.864 158)
  1 by 1 by 1 MPI processor grid
  reading bonds ...
  34530 bonds
  reading angles ...
  64380 angles
  reading dihedrals ...
  91590 dihedrals
  reading impropers ...
  37965 impropers
Finding 1-2 1-3 1-4 neighbors ...
  special bond factors lj:    0        0        1       
  special bond factors coul:  0        0        1       
     4 = max # of 1-2 neighbors
    12 = max # of 1-3 neighbors
    16 = max # of special neighbors
  special bonds CPU = 0.016 seconds
  read_data CPU = 2.723 seconds
include		setup.params
# LAMMPS parameters created by EMC v9.4.4, build Jun 30 2026 09:51:48

# Variables

variable	seed		index	-1
variable	ntotal		index	34140
variable	fshape		index	1
variable	output		index	setup
variable	field		index	cff/pcff/pcff
variable	location1	index	~/Apps/EMC/field/
variable	nav		index	0.6022141179
variable	temperature	index	300
variable	radius		index	5
variable	nrelax		index	100
variable	weight_nonbond	index	0.0001
variable	weight_bond	index	0.0001
variable	weight_focus	index	1
variable	cutoff		index	12
variable	charge_cutoff	index	12
variable	kappa		index	4
variable	density1	index	3
variable	lprevious	index	0
variable	lphase		index	49.3445654722
variable	f_clsp		index	1
variable	chem_ba		index	*CC(*)C(=O)OCCCC
variable	chem_atac	index	*CC(*)C(=O)OCC[N+](CC)(CC)CC
variable	chem_sba	index	*CC(*)C(=O)OC(C)CC
variable	chem_bna	index	*CC(*)C(=O)OCC1=CC=CC=C1
variable	chem_t		index	*C
variable	lg_ba		index	21
variable	lg_atac		index	36
variable	lg_sba		index	21
variable	lg_bna		index	22
variable	lg_t		index	4
variable	norm_clsp	index	1
variable	l_clsp		index	2276
variable	mg_ba		index	128.17249
variable	mg_atac		index	200.30349
variable	mg_sba		index	128.17249
variable	mg_bna		index	162.19
variable	mg_t		index	15.03506
variable	m_clsp		index	14471.01238
variable	norm		index	34140
variable	n_clsp		index	15
variable	mtotal		index	217065.1857
variable	nphase1		index	34140
variable	mphase1		index	217065.1857
variable	vphase1		index	120148.398633
variable	lbox		index	49.3445654722
variable	lphase1		index	49.3445654722
variable	lxx		index	49.3445654722
variable	lyy		index	49.3445654722
variable	lzz		index	49.3445654722
variable	lzy		index	0
variable	lzx		index	0
variable	lyx		index	0
variable	vtotal		index	120148.398633
variable	nl_clsp		index	15

# Types

variable	type_c		index	1
variable	type_c1		index	2
variable	type_c_1	index	3
variable	type_cp		index	4
variable	type_hc		index	5
variable	type_n4		index	6
variable	type_o_1	index	7
variable	type_o_2	index	8

variable	type_bond_c_c	index	1
variable	type_bond_c_c1	index	2
variable	type_bond_c_cp	index	3
variable	type_bond_c_hc	index	4
variable	type_bond_c_n4	index	5
variable	type_bond_c_o_2	index	6
variable	type_bond_c1_c_1 index	7
variable	type_bond_c1_hc	index	8
variable	type_bond_c1_o_2 index	9
variable	type_bond_c_1_o_1 index	10
variable	type_bond_c_1_o_2 index	11
variable	type_bond_cp_cp	index	12
variable	type_bond_cp_hc	index	13

variable	type_angle_c_c_c index	1
variable	type_angle_c_c_c1 index	2
variable	type_angle_c_c_hc index	3
variable	type_angle_c_c_n4 index	4
variable	type_angle_c_c_o_2 index	5
variable	type_angle_c_c1_c index	6
variable	type_angle_c_c1_c_1 index	7
variable	type_angle_c_c1_hc index	8
variable	type_angle_c_c1_o_2 index	9
variable	type_angle_c_cp_cp index	10
variable	type_angle_c_n4_c index	11
variable	type_angle_c_o_2_c_1 index	12
variable	type_angle_c1_c_c1 index	13
variable	type_angle_c1_c_hc index	14
variable	type_angle_c1_c_1_o_1 index	15
variable	type_angle_c1_c_1_o_2 index	16
variable	type_angle_c1_o_2_c_1 index	17
variable	type_angle_c_1_c1_hc index	18
variable	type_angle_cp_c_hc index	19
variable	type_angle_cp_c_o_2 index	20
variable	type_angle_cp_cp_cp index	21
variable	type_angle_cp_cp_hc index	22
variable	type_angle_hc_c_hc index	23
variable	type_angle_hc_c_n4 index	24
variable	type_angle_hc_c_o_2 index	25
variable	type_angle_hc_c1_o_2 index	26
variable	type_angle_o_1_c_1_o_2 index	27

# Clusters

variable	n0_clsp		index	1
variable	n1_clsp		index	15
variable	nl_clsp		index	15

# Flags

variable	flag_charged	index	1

# Masses

mass		1    12.01115  # c
mass		2    12.01115  # c1
mass		3    12.01115  # c_1
mass		4    12.01115  # cp
mass		5     1.00797  # hc
mass		6    14.00670  # n4
mass		7    15.99940  # o_1
mass		8    15.99940  # o_2

# Potentials

pair_style	lj/class2/coul/long ${cutoff} ${charge_cutoff}  # 9.5
pair_style	lj/class2/coul/long 12 ${charge_cutoff}  
pair_style	lj/class2/coul/long 12 12  
bond_style	class2
angle_style	class2
dihedral_style	class2
improper_style	class2
pair_modify	mix sixthpower tail yes
special_bonds	lj/coul 0 0 1

# Pair Coeffs

pair_coeff	 1  1    0.05400    4.01000  # c,c
pair_coeff	 2  2    0.05400    4.01000  # c1,c1
pair_coeff	 3  3    0.12000    3.81000  # c_1,c_1
pair_coeff	 4  4    0.06400    4.01000  # cp,cp
pair_coeff	 5  5    0.02000    2.99500  # hc,hc
pair_coeff	 6  6    0.06500    3.26200  # n4,n4
pair_coeff	 7  7    0.26700    3.30000  # o_1,o_1
pair_coeff	 8  8    0.24000    3.42000  # o_2,o_2

# Bond Coeffs

bond_coeff	 1    1.53000  299.67000 -501.77000  679.81000  # c,c
bond_coeff	 2    1.53000  299.67000 -501.77000  679.81000  # c,c1
bond_coeff	 3    1.50100  321.90210 -521.82080  572.16280  # c,cp
bond_coeff	 4    1.10100  345.00000 -691.89000  844.60000  # c,hc
bond_coeff	 5    1.51850  293.17000 -603.78820  629.69000  # c,n4
bond_coeff	 6    1.43000  326.72730 -608.53060  689.03330  # c,o_2
bond_coeff	 7    1.52020  253.70670 -423.03700  396.90000  # c1,c_1
bond_coeff	 8    1.10100  345.00000 -691.89000  844.60000  # c1,hc
bond_coeff	 9    1.43000  326.72730 -608.53060  689.03330  # c1,o_2
bond_coeff	10    1.20200  851.14030 -1918.48820 2160.76590  # c_1,o_1
bond_coeff	11    1.36830  367.14810 -794.79080 1055.23190  # c_1,o_2
bond_coeff	12    1.41700  470.83610 -627.61790 1327.63450  # cp,cp
bond_coeff	13    1.09820  372.82510 -803.45260  894.31730  # cp,hc

# Angle Coeffs

angle_coeff	 1  112.67000   39.51600   -7.44300   -9.55830  # c,c,c
angle_coeff	 2  112.67000   39.51600   -7.44300   -9.55830  # c,c,c1
angle_coeff	 3  110.77000   41.45300  -10.60400    5.12900  # c,c,hc
angle_coeff	 4  112.13000   66.45200    4.86940   37.78600  # c,c,n4
angle_coeff	 5  107.41000   63.39070  -13.45130    1.66500  # c,c,o_2
angle_coeff	 6  112.67000   39.51600   -7.44300   -9.55830  # c,c1,c
angle_coeff	 7  108.52950   51.97470   -9.48510  -10.99850  # c,c1,c_1
angle_coeff	 8  110.77000   41.45300  -10.60400    5.12900  # c,c1,hc
angle_coeff	 9  107.41000   63.39070  -13.45130    1.66500  # c,c1,o_2
angle_coeff	10  120.05000   44.71480  -22.73520    0.00000  # c,cp,cp
angle_coeff	11  109.77000   44.82200   -3.91320    0.00000  # c,n4,c
angle_coeff	12  113.28800   61.28680  -28.97860    7.99290  # c,o_2,c_1
angle_coeff	13  112.67000   39.51600   -7.44300   -9.55830  # c1,c,c1
angle_coeff	14  110.77000   41.45300  -10.60400    5.12900  # c1,c,hc
angle_coeff	15  123.14510   55.54310  -17.21230    0.13480  # c1,c_1,o_1
angle_coeff	16  100.31820   38.86310   -3.83230   -7.98020  # c1,c_1,o_2
angle_coeff	17  113.28800   61.28680  -28.97860    7.99290  # c1,o_2,c_1
angle_coeff	18  107.73360   40.60990  -28.81210    0.00000  # c_1,c1,hc
angle_coeff	19  111.00000   44.32340   -9.44540    0.00000  # cp,c,hc
angle_coeff	20  109.50000   60.00000    0.00000    0.00000  # cp,c,o_2
angle_coeff	21  118.90000   61.02260  -34.99310    0.00000  # cp,cp,cp
angle_coeff	22  117.94000   35.15580  -12.46820    0.00000  # cp,cp,hc
angle_coeff	23  107.66000   39.64100  -12.92100   -2.43180  # hc,c,hc
angle_coeff	24  105.85000   72.26300  -28.19230    0.00000  # hc,c,n4
angle_coeff	25  107.68800   65.48010  -10.34980    5.88660  # hc,c,o_2
angle_coeff	26  107.68800   65.48010  -10.34980    5.88660  # hc,c1,o_2
angle_coeff	27  120.79700   95.34460  -32.28690    6.37780  # o_1,c_1,o_2

# BondBond Coeffs

angle_coeff	 1 bb    0.00000    1.53000    1.53000  # c,c,c
angle_coeff	 2 bb    0.00000    1.53000    1.53000  # c,c,c1
angle_coeff	 3 bb    3.38720    1.53000    1.10100  # c,c,hc
angle_coeff	 4 bb   16.42800    1.53000    1.51850  # c,c,n4
angle_coeff	 5 bb   23.26470    1.53000    1.43000  # c,c,o_2
angle_coeff	 6 bb    0.00000    1.53000    1.53000  # c,c1,c
angle_coeff	 7 bb    5.41990    1.53000    1.52020  # c,c1,c_1
angle_coeff	 8 bb    3.38720    1.53000    1.10100  # c,c1,hc
angle_coeff	 9 bb   23.26470    1.53000    1.43000  # c,c1,o_2
angle_coeff	10 bb   12.06760    1.50100    1.41700  # c,cp,cp
angle_coeff	11 bb   14.95900    1.51850    1.51850  # c,n4,c
angle_coeff	12 bb   45.45030    1.43000    1.36830  # c,o_2,c_1
angle_coeff	13 bb    0.00000    1.53000    1.53000  # c1,c,c1
angle_coeff	14 bb    3.38720    1.53000    1.10100  # c1,c,hc
angle_coeff	15 bb   46.06850    1.52020    1.20200  # c1,c_1,o_1
angle_coeff	16 bb   19.10690    1.52020    1.36830  # c1,c_1,o_2
angle_coeff	17 bb   45.45030    1.43000    1.36830  # c1,o_2,c_1
angle_coeff	18 bb    0.71150    1.52020    1.10100  # c_1,c1,hc
angle_coeff	19 bb    2.91680    1.50100    1.10100  # cp,c,hc
angle_coeff	20 bb    0.00000    1.50100    1.43000  # cp,c,o_2
angle_coeff	21 bb   68.28560    1.41700    1.41700  # cp,cp,cp
angle_coeff	22 bb    1.07950    1.41700    1.09820  # cp,cp,hc
angle_coeff	23 bb    5.33160    1.10100    1.10100  # hc,c,hc
angle_coeff	24 bb   -1.47970    1.10100    1.51850  # hc,c,n4
angle_coeff	25 bb    5.64540    1.10100    1.43000  # hc,c,o_2
angle_coeff	26 bb    5.64540    1.10100    1.43000  # hc,c1,o_2
angle_coeff	27 bb  121.48800    1.20200    1.36830  # o_1,c_1,o_2

# BondAngle Coeffs

angle_coeff	 1 ba    8.01600    8.01600    1.53000    1.53000  # c,c,c
angle_coeff	 2 ba    8.01600    8.01600    1.53000    1.53000  # c,c,c1
angle_coeff	 3 ba   20.75400   11.42100    1.53000    1.10100  # c,c,hc
angle_coeff	 4 ba   14.06200   49.77300    1.53000    1.51850  # c,c,n4
angle_coeff	 5 ba   23.39200   47.94870    1.53000    1.43000  # c,c,o_2
angle_coeff	 6 ba    8.01600    8.01600    1.53000    1.53000  # c,c1,c
angle_coeff	 7 ba   18.16780   15.87580    1.53000    1.52020  # c,c1,c_1
angle_coeff	 8 ba   20.75400   11.42100    1.53000    1.10100  # c,c1,hc
angle_coeff	 9 ba   23.39200   47.94870    1.53000    1.43000  # c,c1,o_2
angle_coeff	10 ba   47.05790   31.07710    1.50100    1.41700  # c,cp,cp
angle_coeff	11 ba   23.09300   23.09300    1.51850    1.51850  # c,n4,c
angle_coeff	12 ba   41.91160   46.46080    1.43000    1.36830  # c,o_2,c_1
angle_coeff	13 ba    8.01600    8.01600    1.53000    1.53000  # c1,c,c1
angle_coeff	14 ba   20.75400   11.42100    1.53000    1.10100  # c1,c,hc
angle_coeff	15 ba   34.99820   37.12980    1.52020    1.20200  # c1,c_1,o_1
angle_coeff	16 ba    1.34350    4.69780    1.52020    1.36830  # c1,c_1,o_2
angle_coeff	17 ba   41.91160   46.46080    1.43000    1.36830  # c1,o_2,c_1
angle_coeff	18 ba   12.46320    9.17650    1.52020    1.10100  # c_1,c1,hc
angle_coeff	19 ba   26.46080   11.77170    1.50100    1.10100  # cp,c,hc
angle_coeff	20 ba    0.00000    0.00000    1.50100    1.43000  # cp,c,o_2
angle_coeff	21 ba   28.87080   28.87080    1.41700    1.41700  # cp,cp,cp
angle_coeff	22 ba   20.00330   24.21830    1.41700    1.09820  # cp,cp,hc
angle_coeff	23 ba   18.10300   18.10300    1.10100    1.10100  # hc,c,hc
angle_coeff	24 ba   15.88200   50.01800    1.10100    1.51850  # hc,c,n4
angle_coeff	25 ba    8.68640   57.49750    1.10100    1.43000  # hc,c,o_2
angle_coeff	26 ba    8.68640   57.49750    1.10100    1.43000  # hc,c1,o_2
angle_coeff	27 ba   76.26140   71.87610    1.20200    1.36830  # o_1,c_1,o_2

# Dihedral Coeffs

dihedral_coeff	 1    0.00000    0.00000    0.05140    0.00000   -0.14300    0.00000  # c,c,c,c
dihedral_coeff	 2    0.00000    0.00000    0.03160    0.00000   -0.16810    0.00000  # c,c,c,hc
dihedral_coeff	 3    0.00000    0.00000    0.00000    0.00000   -0.25000    0.00000  # c,c,c,o_2
dihedral_coeff	 4    0.00000    0.00000    0.05140    0.00000   -0.14300    0.00000  # c,c,c1,c
dihedral_coeff	 5    0.09720    0.00000    0.07220    0.00000   -0.25810    0.00000  # c,c,c1,c_1
dihedral_coeff	 6    0.00000    0.00000    0.03160    0.00000   -0.16810    0.00000  # c,c,c1,hc
dihedral_coeff	 7    0.00000    0.00000    0.00000    0.00000   -0.25000    0.00000  # c,c,c1,o_2
dihedral_coeff	 8    0.70770    0.00000   -0.37440    0.00000   -0.19140    0.00000  # c,c,n4,c
dihedral_coeff	 9    0.00000    0.00000    0.00000    0.00000   -0.19320    0.00000  # c,c,o_2,c_1
dihedral_coeff	10    0.00000    0.00000    0.05140    0.00000   -0.14300    0.00000  # c,c1,c,c1
dihedral_coeff	11    0.00000    0.00000    0.03160    0.00000   -0.16810    0.00000  # c,c1,c,hc
dihedral_coeff	12    0.04420    0.00000    0.02920    0.00000    0.05620    0.00000  # c,c1,c_1,o_1
dihedral_coeff	13    1.83410    0.00000    2.06030    0.00000   -0.01950    0.00000  # c,c1,c_1,o_2
dihedral_coeff	14    0.00000    0.00000    0.00000    0.00000   -0.19320    0.00000  # c,c1,o_2,c_1
dihedral_coeff	15    0.00000    0.00000    4.40720    0.00000    0.00000    0.00000  # c,cp,cp,cp
dihedral_coeff	16    0.00000    0.00000    1.55900    0.00000    0.00000    0.00000  # c,cp,cp,hc
dihedral_coeff	17    0.36240    0.00000    0.10120    0.00000   -0.24860    0.00000  # c,n4,c,hc
dihedral_coeff	18   -2.55940    0.00000    2.20130    0.00000    0.03250    0.00000  # c,o_2,c_1,c1
dihedral_coeff	19    0.00000    0.00000    2.20890    0.00000    0.00000    0.00000  # c,o_2,c_1,o_1
dihedral_coeff	20    0.00000    0.00000    0.03160    0.00000   -0.16810    0.00000  # c1,c,c,hc
dihedral_coeff	21    0.09720    0.00000    0.07220    0.00000   -0.25810    0.00000  # c1,c,c1,c_1
dihedral_coeff	22    0.00000    0.00000    0.03160    0.00000   -0.16810    0.00000  # c1,c,c1,hc
dihedral_coeff	23   -2.55940    0.00000    2.20130    0.00000    0.03250    0.00000  # c1,c_1,o_2,c1
dihedral_coeff	24    0.00000    0.00000    2.20890    0.00000    0.00000    0.00000  # c1,o_2,c_1,o_1
dihedral_coeff	25   -0.02280    0.00000    0.02800    0.00000   -0.18630    0.00000  # c_1,c1,c,hc
dihedral_coeff	26    0.00000    0.00000    0.00000    0.00000   -0.19320    0.00000  # c_1,o_2,c,cp
dihedral_coeff	27    0.00000    0.00000    0.00000    0.00000   -0.19320    0.00000  # c_1,o_2,c,hc
dihedral_coeff	28    0.00000    0.00000    0.00000    0.00000   -0.19320    0.00000  # c_1,o_2,c1,hc
dihedral_coeff	29   -0.28010    0.00000   -0.06780    0.00000   -0.01220    0.00000  # cp,cp,c,hc
dihedral_coeff	30    0.00000  180.00000    0.00000    0.00000    0.00000    0.00000  # cp,cp,c,o_2
dihedral_coeff	31    8.36670    0.00000    1.19320    0.00000    0.00000    0.00000  # cp,cp,cp,cp
dihedral_coeff	32    0.00000    0.00000    3.96610    0.00000    0.00000    0.00000  # cp,cp,cp,hc
dihedral_coeff	33   -0.14320    0.00000    0.06170    0.00000   -0.10830    0.00000  # hc,c,c,hc
dihedral_coeff	34   -0.21790    0.00000   -0.41270    0.00000   -0.12520    0.00000  # hc,c,c,n4
dihedral_coeff	35    0.00000    0.00000    0.00000    0.00000   -0.25000    0.00000  # hc,c,c,o_2
dihedral_coeff	36   -0.14320    0.00000    0.06170    0.00000   -0.10830    0.00000  # hc,c,c1,hc
dihedral_coeff	37    0.00000    0.00000    0.00000    0.00000   -0.25000    0.00000  # hc,c,c1,o_2
dihedral_coeff	38   -0.18040    0.00000    0.00120    0.00000    0.03710    0.00000  # hc,c1,c_1,o_1
dihedral_coeff	39   -0.63590    0.00000    1.48070    0.00000   -0.04380    0.00000  # hc,c1,c_1,o_2
dihedral_coeff	40    0.00000    0.00000    1.87690    0.00000    0.00000    0.00000  # hc,cp,cp,hc
dihedral_coeff	41    0.00000    0.00000    0.00000    0.00000    0.15800  180.00000  # n4,c,c,o_2

# MiddleBondTorsion Coeffs

dihedral_coeff	 1 mbt  -17.78700   -7.18770    0.00000    1.53000  # c,c,c,c
dihedral_coeff	 2 mbt  -14.87900   -3.65810   -0.31380    1.53000  # c,c,c,hc
dihedral_coeff	 3 mbt    0.00000    0.00000    0.00000    1.53000  # c,c,c,o_2
dihedral_coeff	 4 mbt  -17.78700   -7.18770    0.00000    1.53000  # c,c,c1,c
dihedral_coeff	 5 mbt   -1.59450    0.22670   -0.69110    1.53000  # c,c,c1,c_1
dihedral_coeff	 6 mbt  -14.87900   -3.65810   -0.31380    1.53000  # c,c,c1,hc
dihedral_coeff	 7 mbt    0.00000    0.00000    0.00000    1.53000  # c,c,c1,o_2
dihedral_coeff	 8 mbt    6.25790   -5.08180    6.05110    1.51850  # c,c,n4,c
dihedral_coeff	 9 mbt   -5.43500    0.00000    0.00000    1.43000  # c,c,o_2,c_1
dihedral_coeff	10 mbt  -17.78700   -7.18770    0.00000    1.53000  # c,c1,c,c1
dihedral_coeff	11 mbt  -14.87900   -3.65810   -0.31380    1.53000  # c,c1,c,hc
dihedral_coeff	12 mbt    0.33880   -0.10960    0.12190    1.52020  # c,c1,c_1,o_1
dihedral_coeff	13 mbt  -17.32800   -5.79000   -3.21140    1.52020  # c,c1,c_1,o_2
dihedral_coeff	14 mbt   -5.43500    0.00000    0.00000    1.43000  # c,c1,o_2,c_1
dihedral_coeff	15 mbt    0.00000    9.17920    0.00000    1.41700  # c,cp,cp,cp
dihedral_coeff	16 mbt    0.00000    3.94210    0.00000    1.41700  # c,cp,cp,hc
dihedral_coeff	17 mbt    0.76300    2.63030   -2.59740    1.51850  # c,n4,c,hc
dihedral_coeff	18 mbt    1.34450    3.55150   -4.92020    1.36830  # c,o_2,c_1,c1
dihedral_coeff	19 mbt    4.26000    0.00000    0.00000    1.36830  # c,o_2,c_1,o_1
dihedral_coeff	20 mbt  -14.87900   -3.65810   -0.31380    1.53000  # c1,c,c,hc
dihedral_coeff	21 mbt   -1.59450    0.22670   -0.69110    1.53000  # c1,c,c1,c_1
dihedral_coeff	22 mbt  -14.87900   -3.65810   -0.31380    1.53000  # c1,c,c1,hc
dihedral_coeff	23 mbt    1.34450    3.55150   -4.92020    1.36830  # c1,c_1,o_2,c1
dihedral_coeff	24 mbt    4.26000    0.00000    0.00000    1.36830  # c1,o_2,c_1,o_1
dihedral_coeff	25 mbt   -3.50390    1.24580   -0.76100    1.53000  # c_1,c1,c,hc
dihedral_coeff	26 mbt   -5.43500    0.00000    0.00000    1.43000  # c_1,o_2,c,cp
dihedral_coeff	27 mbt    0.00000    0.00000    0.00000    1.43000  # c_1,o_2,c,hc
dihedral_coeff	28 mbt    0.00000    0.00000    0.00000    1.43000  # c_1,o_2,c1,hc
dihedral_coeff	29 mbt   -5.56790    1.40830    0.30100    1.50100  # cp,cp,c,hc
dihedral_coeff	30 mbt    0.00000    0.00000    0.00000    1.50100  # cp,cp,c,o_2
dihedral_coeff	31 mbt   27.59890   -2.31200    0.00000    1.41700  # cp,cp,cp,cp
dihedral_coeff	32 mbt    0.00000   -1.15210    0.00000    1.41700  # cp,cp,cp,hc
dihedral_coeff	33 mbt  -14.26100   -0.53220   -0.48640    1.53000  # hc,c,c,hc
dihedral_coeff	34 mbt   -9.88260   -3.71380   -0.10220    1.53000  # hc,c,c,n4
dihedral_coeff	35 mbt    0.00000    0.00000    0.00000    1.53000  # hc,c,c,o_2
dihedral_coeff	36 mbt  -14.26100   -0.53220   -0.48640    1.53000  # hc,c,c1,hc
dihedral_coeff	37 mbt    0.00000    0.00000    0.00000    1.53000  # hc,c,c1,o_2
dihedral_coeff	38 mbt    0.23590    0.91390    0.95940    1.52020  # hc,c1,c_1,o_1
dihedral_coeff	39 mbt  -13.76860   -2.59590    1.19340    1.52020  # hc,c1,c_1,o_2
dihedral_coeff	40 mbt    0.00000    4.82280    0.00000    1.41700  # hc,cp,cp,hc
dihedral_coeff	41 mbt    0.00000    0.00000    0.00000    1.53000  # n4,c,c,o_2

# EndBondTorsion Coeffs

dihedral_coeff	 1 ebt   -0.07320    0.00000    0.00000   -0.07320    0.00000    0.00000    1.53000    1.53000  # c,c,c,c
dihedral_coeff	 2 ebt    0.24860    0.24220   -0.09250    0.08140    0.05910    0.22190    1.53000    1.10100  # c,c,c,hc
dihedral_coeff	 3 ebt    0.00000    0.00000    0.00000    0.00000    0.00000    0.00000    1.53000    1.43000  # c,c,c,o_2
dihedral_coeff	 4 ebt   -0.07320    0.00000    0.00000   -0.07320    0.00000    0.00000    1.53000    1.53000  # c,c,c1,c
dihedral_coeff	 5 ebt    0.00620   -0.00020    0.00360    0.00550    0.00600   -0.00090    1.53000    1.52020  # c,c,c1,c_1
dihedral_coeff	 6 ebt    0.24860    0.24220   -0.09250    0.08140    0.05910    0.22190    1.53000    1.10100  # c,c,c1,hc
dihedral_coeff	 7 ebt    0.00000    0.00000    0.00000    0.00000    0.00000    0.00000    1.53000    1.43000  # c,c,c1,o_2
dihedral_coeff	 8 ebt    0.00000    0.00000    0.00000    0.00000    0.00000    0.00000    1.53000    1.51850  # c,c,n4,c
dihedral_coeff	 9 ebt    0.00000    0.00000    0.00000    0.00000    0.00000    0.00000    1.53000    1.36830  # c,c,o_2,c_1
dihedral_coeff	10 ebt   -0.07320    0.00000    0.00000   -0.07320    0.00000    0.00000    1.53000    1.53000  # c,c1,c,c1
dihedral_coeff	11 ebt    0.24860    0.24220   -0.09250    0.08140    0.05910    0.22190    1.53000    1.10100  # c,c1,c,hc
dihedral_coeff	12 ebt    0.26540    0.05030    0.10460   -0.28100    0.08160   -0.15220    1.53000    1.20200  # c,c1,c_1,o_1
dihedral_coeff	13 ebt    0.00000    0.00000    0.00000    0.00000    0.00000    0.00000    1.53000    1.36830  # c,c1,c_1,o_2
dihedral_coeff	14 ebt    0.00000    0.00000    0.00000    0.00000    0.00000    0.00000    1.53000    1.36830  # c,c1,o_2,c_1
dihedral_coeff	15 ebt    0.00000    0.24210    0.00000    0.00000   -0.69180    0.00000    1.50100    1.41700  # c,cp,cp,cp
dihedral_coeff	16 ebt    0.00000   -1.79700    0.00000    0.00000   -0.48790    0.00000    1.50100    1.09820  # c,cp,cp,hc
dihedral_coeff	17 ebt    0.00000    0.00000    0.00000    0.00000    0.00000    0.00000    1.51850    1.10100  # c,n4,c,hc
dihedral_coeff	18 ebt    0.00000    0.00000    0.00000    0.00000    0.00000    0.00000    1.43000    1.52020  # c,o_2,c_1,c1
dihedral_coeff	19 ebt    0.00000    0.00000    0.00000    0.00000    0.00000    0.00000    1.43000    1.20200  # c,o_2,c_1,o_1
dihedral_coeff	20 ebt    0.24860    0.24220   -0.09250    0.08140    0.05910    0.22190    1.53000    1.10100  # c1,c,c,hc
dihedral_coeff	21 ebt    0.00620   -0.00020    0.00360    0.00550    0.00600   -0.00090    1.53000    1.52020  # c1,c,c1,c_1
dihedral_coeff	22 ebt    0.24860    0.24220   -0.09250    0.08140    0.05910    0.22190    1.53000    1.10100  # c1,c,c1,hc
dihedral_coeff	23 ebt    0.00000    0.00000    0.00000    0.00000    0.00000    0.00000    1.52020    1.43000  # c1,c_1,o_2,c1
dihedral_coeff	24 ebt    0.00000    0.00000    0.00000    0.00000    0.00000    0.00000    1.43000    1.20200  # c1,o_2,c_1,o_1
dihedral_coeff	25 ebt   -0.02040    0.36280   -0.44260   -0.00970   -0.03150   -0.07550    1.52020    1.10100  # c_1,c1,c,hc
dihedral_coeff	26 ebt    0.00000    0.00000    0.00000    0.00000    0.00000    0.00000    1.36830    1.50100  # c_1,o_2,c,cp
dihedral_coeff	27 ebt    0.00000    0.00000    0.00000    0.00000    0.00000    0.00000    1.36830    1.10100  # c_1,o_2,c,hc
dihedral_coeff	28 ebt    0.00000    0.00000    0.00000    0.00000    0.00000    0.00000    1.36830    1.10100  # c_1,o_2,c1,hc
dihedral_coeff	29 ebt   -0.58350    1.12200    0.39780    1.39970    0.77560    0.00000    1.41700    1.10100  # cp,cp,c,hc
dihedral_coeff	30 ebt    0.00000    0.00000    0.00000    0.00000    0.00000    0.00000    1.41700    1.43000  # cp,cp,c,o_2
dihedral_coeff	31 ebt   -0.11850    6.32040    0.00000   -0.11850    6.32040    0.00000    1.41700    1.41700  # cp,cp,cp,cp
dihedral_coeff	32 ebt    0.00000   -6.89580    0.00000    0.00000   -0.46690    0.00000    1.41700    1.09820  # cp,cp,cp,hc
dihedral_coeff	33 ebt    0.21300    0.31200    0.07770    0.21300    0.31200    0.07770    1.10100    1.10100  # hc,c,c,hc
dihedral_coeff	34 ebt    0.00000    0.00000    0.00000    0.00000    0.00000    0.00000    1.10100    1.51850  # hc,c,c,n4
dihedral_coeff	35 ebt    0.00000    0.00000    0.00000    0.00000    0.00000    0.00000    1.10100    1.43000  # hc,c,c,o_2
dihedral_coeff	36 ebt    0.21300    0.31200    0.07770    0.21300    0.31200    0.07770    1.10100    1.10100  # hc,c,c1,hc
dihedral_coeff	37 ebt    0.00000    0.00000    0.00000    0.00000    0.00000    0.00000    1.10100    1.43000  # hc,c,c1,o_2
dihedral_coeff	38 ebt    1.21430    0.28310    0.39160   -0.22980    0.03540    0.38530    1.10100    1.20200  # hc,c1,c_1,o_1
dihedral_coeff	39 ebt    0.00000    0.00000    0.00000    0.00000    0.00000    0.00000    1.10100    1.36830  # hc,c1,c_1,o_2
dihedral_coeff	40 ebt    0.00000   -0.68900    0.00000    0.00000   -0.68900    0.00000    1.09820    1.09820  # hc,cp,cp,hc
dihedral_coeff	41 ebt    0.00000    0.00000    0.00000    0.00000    0.00000    0.00000    1.51850    1.43000  # n4,c,c,o_2

# AngleTorsion Coeffs

dihedral_coeff	 1 at    0.38860   -0.31390    0.13890    0.38860   -0.31390    0.13890  112.67000  112.67000  # c,c,c,c
dihedral_coeff	 2 at   -0.24540    0.00000   -0.11360    0.31130    0.45160   -0.19880  112.67000  110.77000  # c,c,c,hc
dihedral_coeff	 3 at    0.00000    0.00000    0.00000    0.00000    0.00000    0.00000  112.67000  107.41000  # c,c,c,o_2
dihedral_coeff	 4 at    0.38860   -0.31390    0.13890    0.38860   -0.31390    0.13890  112.67000  112.67000  # c,c,c1,c
dihedral_coeff	 5 at   -0.26070    0.32030   -0.22830    0.05150   -0.06740   -0.04740  112.67000  108.52950  # c,c,c1,c_1
dihedral_coeff	 6 at   -0.24540    0.00000   -0.11360    0.31130    0.45160   -0.19880  112.67000  110.77000  # c,c,c1,hc
dihedral_coeff	 7 at    0.00000    0.00000    0.00000    0.00000    0.00000    0.00000  112.67000  107.41000  # c,c,c1,o_2
dihedral_coeff	 8 at   -1.28770    4.80560    1.14810   -3.76820    2.74640   -1.62720  112.13000  109.77000  # c,c,n4,c
dihedral_coeff	 9 at    0.00000    0.00000    0.00000    0.00000    0.00000    0.00000  107.41000  113.28800  # c,c,o_2,c_1
dihedral_coeff	10 at    0.38860   -0.31390    0.13890    0.38860   -0.31390    0.13890  112.67000  112.67000  # c,c1,c,c1
dihedral_coeff	11 at   -0.24540    0.00000   -0.11360    0.31130    0.45160   -0.19880  112.67000  110.77000  # c,c1,c,hc
dihedral_coeff	12 at    0.08850   -1.37030   -0.54520    0.67500    0.59650    0.67250  108.52950  123.14510  # c,c1,c_1,o_1
dihedral_coeff	13 at    0.00000    0.00000    0.00000    0.00000    0.00000    0.00000  108.52950  100.31820  # c,c1,c_1,o_2
dihedral_coeff	14 at    0.00000    0.00000    0.00000    0.00000    0.00000    0.00000  107.41000  113.28800  # c,c1,o_2,c_1
dihedral_coeff	15 at    0.00000   -4.46830    0.00000    0.00000    3.89870    0.00000  120.05000  118.90000  # c,cp,cp,cp
dihedral_coeff	16 at    0.00000   -0.12420    0.00000    0.00000    3.46010    0.00000  120.05000  117.94000  # c,cp,cp,hc
dihedral_coeff	17 at    1.68400    0.40870    0.42930   -0.08390    1.54770   -0.22840  109.77000  105.85000  # c,n4,c,hc
dihedral_coeff	18 at    0.00000    0.00000    0.00000    0.00000    0.00000    0.00000  113.28800  100.31820  # c,o_2,c_1,c1
dihedral_coeff	19 at    0.00000    0.00000    0.00000    0.00000    0.00000    0.00000  113.28800  120.79700  # c,o_2,c_1,o_1
dihedral_coeff	20 at   -0.24540    0.00000   -0.11360    0.31130    0.45160   -0.19880  112.67000  110.77000  # c1,c,c,hc
dihedral_coeff	21 at   -0.26070    0.32030   -0.22830    0.05150   -0.06740   -0.04740  112.67000  108.52950  # c1,c,c1,c_1
dihedral_coeff	22 at   -0.24540    0.00000   -0.11360    0.31130    0.45160   -0.19880  112.67000  110.77000  # c1,c,c1,hc
dihedral_coeff	23 at    0.00000    0.00000    0.00000    0.00000    0.00000    0.00000  100.31820  113.28800  # c1,c_1,o_2,c1
dihedral_coeff	24 at    0.00000    0.00000    0.00000    0.00000    0.00000    0.00000  113.28800  120.79700  # c1,o_2,c_1,o_1
dihedral_coeff	25 at   -0.74660   -0.94480   -0.63210    0.01620    1.42110   -1.40920  108.52950  110.77000  # c_1,c1,c,hc
dihedral_coeff	26 at    0.00000    0.00000    0.00000    0.00000    0.00000    0.00000  113.28800  109.50000  # c_1,o_2,c,cp
dihedral_coeff	27 at    0.00000    0.00000    0.00000    0.00000    0.00000    0.00000  113.28800  107.68800  # c_1,o_2,c,hc
dihedral_coeff	28 at    0.00000    0.00000    0.00000    0.00000    0.00000    0.00000  113.28800  107.68800  # c_1,o_2,c1,hc
dihedral_coeff	29 at    0.22510    0.65480    0.12370    4.62660    0.16320    0.04610  120.05000  111.00000  # cp,cp,c,hc
dihedral_coeff	30 at    0.00000    0.00000    0.00000    0.00000    0.00000    0.00000  120.05000  109.50000  # cp,cp,c,o_2
dihedral_coeff	31 at    1.97670    1.02390    0.00000    1.97670    1.02390    0.00000  118.90000  118.90000  # cp,cp,cp,cp
dihedral_coeff	32 at    0.00000    2.50140    0.00000    0.00000    2.71470    0.00000  118.90000  117.94000  # cp,cp,cp,hc
dihedral_coeff	33 at   -0.80850    0.55690   -0.24660   -0.80850    0.55690   -0.24660  110.77000  110.77000  # hc,c,c,hc
dihedral_coeff	34 at   -3.41090    0.64760   -0.95840   -2.86940    1.61720   -1.46270  110.77000  112.13000  # hc,c,c,n4
dihedral_coeff	35 at    0.00000    0.00000    0.00000    0.00000    0.00000    0.00000  110.77000  107.41000  # hc,c,c,o_2
dihedral_coeff	36 at   -0.80850    0.55690   -0.24660   -0.80850    0.55690   -0.24660  110.77000  110.77000  # hc,c,c1,hc
dihedral_coeff	37 at    0.00000    0.00000    0.00000    0.00000    0.00000    0.00000  110.77000  107.41000  # hc,c,c1,o_2
dihedral_coeff	38 at    9.12990   -0.48470    0.35820   -1.49460    0.73080   -0.20830  107.73360  123.14510  # hc,c1,c_1,o_1
dihedral_coeff	39 at    0.00000    0.00000    0.00000    0.00000    0.00000    0.00000  107.73360  100.31820  # hc,c1,c_1,o_2
dihedral_coeff	40 at    0.00000    2.45010    0.00000    0.00000    2.45010    0.00000  117.94000  117.94000  # hc,cp,cp,hc
dihedral_coeff	41 at    0.00000    0.00000    0.00000    0.00000    0.00000    0.00000  112.13000  107.41000  # n4,c,c,o_2

# AngleAngleTorsion Coeffs

dihedral_coeff	 1 aat  -22.04500  112.67000  112.67000  # c,c,c,c
dihedral_coeff	 2 aat  -16.16400  112.67000  110.77000  # c,c,c,hc
dihedral_coeff	 3 aat    0.00000  112.67000  107.41000  # c,c,c,o_2
dihedral_coeff	 4 aat  -22.04500  112.67000  112.67000  # c,c,c1,c
dihedral_coeff	 5 aat   -0.38010  112.67000  108.52950  # c,c,c1,c_1
dihedral_coeff	 6 aat  -16.16400  112.67000  110.77000  # c,c,c1,hc
dihedral_coeff	 7 aat    0.00000  112.67000  107.41000  # c,c,c1,o_2
dihedral_coeff	 8 aat  -18.15940  112.13000  109.77000  # c,c,n4,c
dihedral_coeff	 9 aat    0.00000  107.41000  113.28800  # c,c,o_2,c_1
dihedral_coeff	10 aat  -22.04500  112.67000  112.67000  # c,c1,c,c1
dihedral_coeff	11 aat  -16.16400  112.67000  110.77000  # c,c1,c,hc
dihedral_coeff	12 aat   -8.01900  108.52950  123.14510  # c,c1,c_1,o_1
dihedral_coeff	13 aat    0.00000  108.52950  100.31820  # c,c1,c_1,o_2
dihedral_coeff	14 aat    0.00000  107.41000  113.28800  # c,c1,o_2,c_1
dihedral_coeff	15 aat  -14.40970  120.05000  118.90000  # c,cp,cp,cp
dihedral_coeff	16 aat    4.44440  120.05000  117.94000  # c,cp,cp,hc
dihedral_coeff	17 aat  -14.04430  109.77000  105.85000  # c,n4,c,hc
dihedral_coeff	18 aat    0.00000  113.28800  100.31820  # c,o_2,c_1,c1
dihedral_coeff	19 aat    0.00000  113.28800  120.79700  # c,o_2,c_1,o_1
dihedral_coeff	20 aat  -16.16400  112.67000  110.77000  # c1,c,c,hc
dihedral_coeff	21 aat   -0.38010  112.67000  108.52950  # c1,c,c1,c_1
dihedral_coeff	22 aat  -16.16400  112.67000  110.77000  # c1,c,c1,hc
dihedral_coeff	23 aat    0.00000  100.31820  113.28800  # c1,c_1,o_2,c1
dihedral_coeff	24 aat    0.00000  113.28800  120.79700  # c1,o_2,c_1,o_1
dihedral_coeff	25 aat   -5.36240  108.52950  110.77000  # c_1,c1,c,hc
dihedral_coeff	26 aat    0.00000  113.28800  109.50000  # c_1,o_2,c,cp
dihedral_coeff	27 aat    0.00000  113.28800  107.68800  # c_1,o_2,c,hc
dihedral_coeff	28 aat    0.00000  113.28800  107.68800  # c_1,o_2,c1,hc
dihedral_coeff	29 aat   -5.88880  120.05000  111.00000  # cp,cp,c,hc
dihedral_coeff	30 aat    0.00000  120.05000  109.50000  # cp,cp,c,o_2
dihedral_coeff	31 aat    0.00000  118.90000  118.90000  # cp,cp,cp,cp
dihedral_coeff	32 aat   -4.81410  118.90000  117.94000  # cp,cp,cp,hc
dihedral_coeff	33 aat  -12.56400  110.77000  110.77000  # hc,c,c,hc
dihedral_coeff	34 aat  -18.92630  110.77000  112.13000  # hc,c,c,n4
dihedral_coeff	35 aat    0.00000  110.77000  107.41000  # hc,c,c,o_2
dihedral_coeff	36 aat  -12.56400  110.77000  110.77000  # hc,c,c1,hc
dihedral_coeff	37 aat    0.00000  110.77000  107.41000  # hc,c,c1,o_2
dihedral_coeff	38 aat  -15.34960  107.73360  123.14510  # hc,c1,c_1,o_1
dihedral_coeff	39 aat    0.00000  107.73360  100.31820  # hc,c1,c_1,o_2
dihedral_coeff	40 aat    0.35980  117.94000  117.94000  # hc,cp,cp,hc
dihedral_coeff	41 aat    0.00000  112.13000  107.41000  # n4,c,c,o_2

# BondBond13 Coeffs

dihedral_coeff	 1 bb13    0.00000    1.53000    1.53000  # c,c,c,c
dihedral_coeff	 2 bb13    0.00000    1.53000    1.10100  # c,c,c,hc
dihedral_coeff	 3 bb13    0.00000    1.53000    1.43000  # c,c,c,o_2
dihedral_coeff	 4 bb13    0.00000    1.53000    1.53000  # c,c,c1,c
dihedral_coeff	 5 bb13    0.00000    1.53000    1.52020  # c,c,c1,c_1
dihedral_coeff	 6 bb13    0.00000    1.53000    1.10100  # c,c,c1,hc
dihedral_coeff	 7 bb13    0.00000    1.53000    1.43000  # c,c,c1,o_2
dihedral_coeff	 8 bb13    0.00000    1.53000    1.51850  # c,c,n4,c
dihedral_coeff	 9 bb13    0.00000    1.53000    1.36830  # c,c,o_2,c_1
dihedral_coeff	10 bb13    0.00000    1.53000    1.53000  # c,c1,c,c1
dihedral_coeff	11 bb13    0.00000    1.53000    1.10100  # c,c1,c,hc
dihedral_coeff	12 bb13    0.00000    1.53000    1.20200  # c,c1,c_1,o_1
dihedral_coeff	13 bb13    0.00000    1.53000    1.36830  # c,c1,c_1,o_2
dihedral_coeff	14 bb13    0.00000    1.53000    1.36830  # c,c1,o_2,c_1
dihedral_coeff	15 bb13    2.50850    1.50100    1.41700  # c,cp,cp,cp
dihedral_coeff	16 bb13    0.87430    1.50100    1.09820  # c,cp,cp,hc
dihedral_coeff	17 bb13    0.00000    1.51850    1.10100  # c,n4,c,hc
dihedral_coeff	18 bb13    0.00000    1.43000    1.52020  # c,o_2,c_1,c1
dihedral_coeff	19 bb13    0.00000    1.43000    1.20200  # c,o_2,c_1,o_1
dihedral_coeff	20 bb13    0.00000    1.53000    1.10100  # c1,c,c,hc
dihedral_coeff	21 bb13    0.00000    1.53000    1.52020  # c1,c,c1,c_1
dihedral_coeff	22 bb13    0.00000    1.53000    1.10100  # c1,c,c1,hc
dihedral_coeff	23 bb13    0.00000    1.52020    1.43000  # c1,c_1,o_2,c1
dihedral_coeff	24 bb13    0.00000    1.43000    1.20200  # c1,o_2,c_1,o_1
dihedral_coeff	25 bb13    0.00000    1.52020    1.10100  # c_1,c1,c,hc
dihedral_coeff	26 bb13    0.00000    1.36830    1.50100  # c_1,o_2,c,cp
dihedral_coeff	27 bb13    0.00000    1.36830    1.10100  # c_1,o_2,c,hc
dihedral_coeff	28 bb13    0.00000    1.36830    1.10100  # c_1,o_2,c1,hc
dihedral_coeff	29 bb13   -3.48260    1.41700    1.10100  # cp,cp,c,hc
dihedral_coeff	30 bb13    0.00000    1.41700    1.43000  # cp,cp,c,o_2
dihedral_coeff	31 bb13   53.00000    1.41700    1.41700  # cp,cp,cp,cp
dihedral_coeff	32 bb13   -6.27410    1.41700    1.09820  # cp,cp,cp,hc
dihedral_coeff	33 bb13    0.00000    1.10100    1.10100  # hc,c,c,hc
dihedral_coeff	34 bb13    0.00000    1.10100    1.51850  # hc,c,c,n4
dihedral_coeff	35 bb13    0.00000    1.10100    1.43000  # hc,c,c,o_2
dihedral_coeff	36 bb13    0.00000    1.10100    1.10100  # hc,c,c1,hc
dihedral_coeff	37 bb13    0.00000    1.10100    1.43000  # hc,c,c1,o_2
dihedral_coeff	38 bb13    0.00000    1.10100    1.20200  # hc,c1,c_1,o_1
dihedral_coeff	39 bb13    0.00000    1.10100    1.36830  # hc,c1,c_1,o_2
dihedral_coeff	40 bb13   -1.70770    1.09820    1.09820  # hc,cp,cp,hc
dihedral_coeff	41 bb13    0.00000    1.51850    1.43000  # n4,c,c,o_2

# Improper Coeffs

improper_coeff	 1    0.00000    0.00000  # c,c,c,hc
improper_coeff	 2    0.00000    0.00000  # c,c,c1,hc
improper_coeff	 3    0.00000    0.00000  # c,c,hc,c1
improper_coeff	 4    0.00000    0.00000  # c,c,hc,hc
improper_coeff	 5    0.00000    0.00000  # c,c,hc,n4
improper_coeff	 6    0.00000    0.00000  # c,c,hc,o_2
improper_coeff	 7    0.00000    0.00000  # c,c,n4,hc
improper_coeff	 8    0.00000    0.00000  # c,c1,c1,hc
improper_coeff	 9    0.00000    0.00000  # c,c1,hc,hc
improper_coeff	10    0.00000    0.00000  # c,cp,hc,hc
improper_coeff	11    0.00000    0.00000  # c,cp,hc,o_2
improper_coeff	12    0.00000    0.00000  # c,hc,hc,hc
improper_coeff	13    0.00000    0.00000  # c,hc,hc,n4
improper_coeff	14    0.00000    0.00000  # c,hc,hc,o_2
improper_coeff	15    0.00000    0.00000  # c1,c,c,c_1
improper_coeff	16    0.00000    0.00000  # c1,c,c,hc
improper_coeff	17    0.00000    0.00000  # c1,c,c,o_2
improper_coeff	18    0.00000    0.00000  # c1,c,c_1,hc
improper_coeff	19    0.00000    0.00000  # c1,c,hc,o_2
improper_coeff	20   46.92640    0.00000  # c_1,c1,o_2,o_1
improper_coeff	21    7.81530    0.00000  # cp,c,cp,cp
improper_coeff	22    4.89120    0.00000  # cp,cp,cp,hc
improper_coeff	23    0.00000    0.00000  # n4,c,c,c

# AngleAngle Coeffs

improper_coeff	 1 aa   -1.31990   -1.31990    0.11840  112.67000  110.77000  110.77000  # c,c,c,hc
improper_coeff	 2 aa   -1.31990   -1.31990    0.11840  112.67000  110.77000  110.77000  # c,c,c1,hc
improper_coeff	 3 aa    0.11840   -1.31990   -1.31990  110.77000  112.67000  110.77000  # c,c,hc,c1
improper_coeff	 4 aa    0.27380   -0.48250    0.27380  110.77000  110.77000  107.66000  # c,c,hc,hc
improper_coeff	 5 aa    4.24400    6.02740    7.02920  110.77000  112.13000  105.85000  # c,c,hc,n4
improper_coeff	 6 aa    0.00000    0.00000    0.00000  110.77000  107.41000  107.68800  # c,c,hc,o_2
improper_coeff	 7 aa    7.02920    6.02740    4.24400  112.13000  110.77000  105.85000  # c,c,n4,hc
improper_coeff	 8 aa   -1.31990   -1.31990    0.11840  112.67000  110.77000  110.77000  # c,c1,c1,hc
improper_coeff	 9 aa    0.27380   -0.48250    0.27380  110.77000  110.77000  107.66000  # c,c1,hc,hc
improper_coeff	10 aa    2.37940    3.01180    2.37940  111.00000  111.00000  107.66000  # c,cp,hc,hc
improper_coeff	11 aa    0.00000    0.00000    0.00000  111.00000  109.50000  107.68800  # c,cp,hc,o_2
improper_coeff	12 aa   -0.31570   -0.31570   -0.31570  107.66000  107.66000  107.66000  # c,hc,hc,hc
improper_coeff	13 aa    3.54750    3.54750    7.33650  107.66000  105.85000  105.85000  # c,hc,hc,n4
improper_coeff	14 aa    0.00000    0.00000    0.00000  107.66000  107.68800  107.68800  # c,hc,hc,o_2
improper_coeff	15 aa    0.00000    0.00000    0.00000  112.67000  108.52950  108.52950  # c1,c,c,c_1
improper_coeff	16 aa   -1.31990   -1.31990    0.11840  112.67000  110.77000  110.77000  # c1,c,c,hc
improper_coeff	17 aa    0.00000    0.00000    0.00000  112.67000  107.41000  107.41000  # c1,c,c,o_2
improper_coeff	18 aa    2.04030   -1.82020    1.08270  108.52950  110.77000  107.73360  # c1,c,c_1,hc
improper_coeff	19 aa    0.00000    0.00000    0.00000  110.77000  107.41000  107.68800  # c1,c,hc,o_2
improper_coeff	20 aa    0.00000    0.00000    0.00000  100.31820  123.14510  120.79700  # c_1,c1,o_2,o_1
improper_coeff	21 aa    0.00000    0.00000    0.00000  120.05000  120.05000  118.90000  # cp,c,cp,cp
improper_coeff	22 aa    0.00000    0.00000    0.00000  118.90000  117.94000  117.94000  # cp,cp,cp,hc
improper_coeff	23 aa   -1.51550   -1.51550   -1.51550  109.77000  109.77000  109.77000  # n4,c,c,c



write_data      Polymer_CSLP1.data
System init for write_data ...
PPPM initialization ...
WARNING: System is not charge neutral, net charge = 120
For more information see https://docs.lammps.org/err0029 (src/kspace.cpp:330)
  using 12-bit tables for long-range coulomb
  G vector (1/distance) = 0.21259985
  grid = 32 36 72
  stencil order = 5
  estimated absolute RMS force accuracy = 0.0032575215
  estimated relative force accuracy = 9.8099293e-06
  using double precision KISS FFT
  3d grid and FFT values/proc = 116809 82944
Generated 28 of 28 mixed pair_coeff terms from sixthpower/sixthpower mixing rule
Neighbor list info ...
  update: every = 1 steps, delay = 0 steps, check = yes
  max neighbors/atom: 10000, page size: 1000000
  master list distance cutoff = 14
  ghost atom cutoff = 14
  binsize = 7, bins = 12 12 29
  1 neighbor lists, perpetual/occasional/extra = 1 0 0
  (1) pair lj/class2/coul/long, perpetual
      attributes: half, newton off
      pair build: half/bin/newtoff
      stencil: full/bin/3d
      bin: standard


CITE-CITE-CITE-CITE-CITE-CITE-CITE-CITE-CITE-CITE-CITE-CITE-CITE

Your simulation uses code contributions which should be cited:

- GPU package (short-range, long-range and three-body potentials): doi:10.1016/j.cpc.2010.12.021, doi:10.1016/j.cpc.2011.10.012, doi:10.1016/j.cpc.2013.08.002, doi:10.1016/j.commatsci.2014.10.068, doi:10.1016/j.cpc.2016.10.020, doi:10.3233/APC200086

@Article{Brown11,
 author = {W. M. Brown and P. Wang and S. J. Plimpton and A. N. Tharrington},
 title = {Implementing Molecular Dynamics on Hybrid High Performance Computers---Short Range Forces},
 journal = {Comput.\ Phys.\ Commun.},
 year =    2011,
 volume =  182,
 pages =   {898--911},
 doi =     {10.1016/j.cpc.2010.12.021}
}

@Article{Brown12,
 author = {W. M. Brown and A. Kohlmeyer and S. J. Plimpton and A. N. Tharrington},
 title = {Implementing Molecular Dynamics on Hybrid High Performance Computers - Particle-Particle Particle-Mesh},
 journal = {Comput.\ Phys.\ Commun.},
 year =    2012,
 volume =  183,
 doi =     {10.1016/j.cpc.2011.10.012},
 pages =   {449--459}
}

@Article{Brown13,
 author = {W. M. Brown and Y. Masako},
 title = {Implementing Molecular Dynamics on Hybrid High Performance Computers---Three-Body Potentials},
 journal = {Comput.\ Phys.\ Commun.},
 year =    2013,
 volume =  184,
 pages =   {2785--2793},
 doi =     {10.1016/j.cpc.2013.08.002},
}

@Article{Trung15,
 author = {T. D. Nguyen and S. J. Plimpton},
 title = {Accelerating Dissipative Particle Dynamics Simulations for Soft Matter Systems},
 journal = {Comput.\ Mater.\ Sci.},
 year =    2015,
 doi =     {10.1016/j.commatsci.2014.10.068},
 volume =  100,
 pages =   {173--180}
}

@Article{Trung17,
 author = {T. D. Nguyen},
 title = {{GPU}-Accelerated {T}ersoff Potentials for Massively Parallel
    Molecular Dynamics Simulations},
 journal = {Comput.\ Phys.\ Commun.},
 year =    2017,
 doi =     {10.1016/j.cpc.2016.10.020},
 volume =  212,
 pages =   {113--122}
}

@inproceedings{Nikolskiy19,
 author = {V. Nikolskiy and V. Stegailov},
 title = {{GPU} Acceleration of Four-Site Water Models in {LAMMPS}},
 booktitle = {Proceedings of the International Conference on Parallel
    Computing (ParCo 2019), Prague, Czech Republic},
 doi =     {10.3233/APC200086},
 year =    2019
}

CITE-CITE-CITE-CITE-CITE-CITE-CITE-CITE-CITE-CITE-CITE-CITE-CITE

Total wall time: 0:00:04
