LAMMPS (22 Jul 2025 - Update 4)
KOKKOS mode with Kokkos version 4.6.2 is enabled
  will use up to 1 GPU(s) per node
  using 1 OpenMP thread(s) per MPI task
package kokkos
package kokkos newton off
units           real
atom_style      full
boundary        p p p
comm_style      brick
# newton off
special_bonds   lj/coul 0.0 0.0 1.0
bond_style      class2
angle_style     class2
dihedral_style  class2
improper_style  class2
pair_style      soft 10.0
read_data       setup.data
Reading data file ...
  orthogonal box = (0 0 -160) to (80.6296 82.864 160)
  1 by 1 by 1 MPI processor grid
  reading atoms ...
  35235 atoms
  scanning bonds ...
  4 = max bonds/atom
  scanning angles ...
  18 = max angles/atom
  scanning dihedrals ...
  39 = max dihedrals/atom
  scanning impropers ...
  16 = max impropers/atom
  orthogonal box = (0 0 -160) to (80.6296 82.864 160)
  1 by 1 by 1 MPI processor grid
  reading bonds ...
  35700 bonds
  reading angles ...
  65940 angles
  reading dihedrals ...
  92955 dihedrals
  reading impropers ...
  38235 impropers
Finding 1-2 1-3 1-4 neighbors ...
  special bond factors lj:    0        0        1       
  special bond factors coul:  0        0        1       
     4 = max # of 1-2 neighbors
    12 = max # of 1-3 neighbors
    16 = max # of special neighbors
  special bonds CPU = 0.040 seconds
  read_data CPU = 1.313 seconds
include         setup.params
# LAMMPS parameters created by EMC v9.4.4, build Jun 30 2026 09:51:48

# Variables

variable	seed		index	555666
variable	ntotal		index	35235
variable	fshape		index	1
variable	output		index	setup
variable	field		index	cff/pcff/pcff
variable	location1	index	~/Apps/EMC/field/
variable	nav		index	0.6022141179
variable	temperature	index	300
variable	radius		index	3.5
variable	nrelax		index	1000
variable	weight_nonbond	index	0.0001
variable	weight_bond	index	0.0001
variable	weight_focus	index	1
variable	cutoff		index	12
variable	charge_cutoff	index	12
variable	kappa		index	1
variable	density1	index	0.730689531559
variable	lprevious	index	0
variable	lphase		index	80.6296
variable	f_R		index	1
variable	chem_ba		index	*CC(*)C(=O)OCCCC
variable	chem_atac	index	*CC(*)C(=O)OCC[N+](C)(C)C
variable	chem_pea	index	*CC(*)C(=O)OCCOc1ccccc1
variable	chem_t		index	*C
variable	lg_ba		index	21
variable	lg_atac		index	27
variable	lg_pea		index	26
variable	lg_t		index	4
variable	norm_R		index	1
variable	l_R		index	2349
variable	mg_ba		index	128.17249
variable	mg_atac		index	158.22222
variable	mg_pea		index	192.21649
variable	mg_t		index	15.03506
variable	m_R		index	15325.39691
variable	norm		index	35235
variable	n_R		index	4
variable	mtotal		index	229880.95365
variable	nphase1		index	35235
variable	mphase1		index	229880.95365
variable	vphase1		index	522419.25098
variable	lbox		index	80.539029258
variable	lphase1		index	80.539029258
variable	lxx		index	80.6296
variable	lyy		index	82.864
variable	lzz		index	80
variable	lzy		index	0
variable	lzx		index	0
variable	lyx		index	0
variable	vtotal		index	534503.293952
variable	nl_R		index	15

# Types

variable	type_c		index	1
variable	type_c1		index	2
variable	type_c_1	index	3
variable	type_cp		index	4
variable	type_hc		index	5
variable	type_n4		index	6
variable	type_o_1	index	7
variable	type_o_2	index	8
variable	type_oc		index	9

variable	type_bond_c_c	index	1
variable	type_bond_c_c1	index	2
variable	type_bond_c_hc	index	3
variable	type_bond_c_n4	index	4
variable	type_bond_c_o_2	index	5
variable	type_bond_c_oc	index	6
variable	type_bond_c1_c_1 index	7
variable	type_bond_c1_hc	index	8
variable	type_bond_c_1_o_1 index	9
variable	type_bond_c_1_o_2 index	10
variable	type_bond_cp_cp	index	11
variable	type_bond_cp_hc	index	12
variable	type_bond_cp_oc	index	13

variable	type_angle_c_c_c index	1
variable	type_angle_c_c_c1 index	2
variable	type_angle_c_c_hc index	3
variable	type_angle_c_c_n4 index	4
variable	type_angle_c_c_o_2 index	5
variable	type_angle_c_c_oc index	6
variable	type_angle_c_c1_c index	7
variable	type_angle_c_c1_c_1 index	8
variable	type_angle_c_c1_hc index	9
variable	type_angle_c_n4_c index	10
variable	type_angle_c_o_2_c_1 index	11
variable	type_angle_c_oc_cp index	12
variable	type_angle_c1_c_c1 index	13
variable	type_angle_c1_c_hc index	14
variable	type_angle_c1_c_1_o_1 index	15
variable	type_angle_c1_c_1_o_2 index	16
variable	type_angle_c_1_c1_hc index	17
variable	type_angle_cp_cp_cp index	18
variable	type_angle_cp_cp_hc index	19
variable	type_angle_cp_cp_oc index	20
variable	type_angle_hc_c_hc index	21
variable	type_angle_hc_c_n4 index	22
variable	type_angle_hc_c_o_2 index	23
variable	type_angle_hc_c_oc index	24
variable	type_angle_o_1_c_1_o_2 index	25

# Clusters

variable	n0_R		index	1
variable	n1_R		index	15
variable	nl_R		index	15

# Flags

variable	flag_charged	index	1

# Masses

mass		1    12.01115  # c
mass		2    12.01115  # c1
mass		3    12.01115  # c_1
mass		4    12.01115  # cp
mass		5     1.00797  # hc
mass		6    14.00670  # n4
mass		7    15.99940  # o_1
mass		8    15.99940  # o_2
mass		9    15.99940  # oc

# Potentials

pair_style	lj/class2/coul/long ${cutoff} ${charge_cutoff}  # 9.5
pair_style	lj/class2/coul/long 12 ${charge_cutoff}  
pair_style	lj/class2/coul/long 12 12  
bond_style	class2
angle_style	class2
dihedral_style	class2
improper_style	class2
pair_modify	mix sixthpower tail yes
special_bonds	lj/coul 0 0 1

# Pair Coeffs

pair_coeff	 1  1    0.05400    4.01000  # c,c
pair_coeff	 2  2    0.05400    4.01000  # c1,c1
pair_coeff	 3  3    0.12000    3.81000  # c_1,c_1
pair_coeff	 4  4    0.06400    4.01000  # cp,cp
pair_coeff	 5  5    0.02000    2.99500  # hc,hc
pair_coeff	 6  6    0.06500    3.26200  # n4,n4
pair_coeff	 7  7    0.26700    3.30000  # o_1,o_1
pair_coeff	 8  8    0.24000    3.42000  # o_2,o_2
pair_coeff	 9  9    0.24000    3.53500  # oc,oc

# Bond Coeffs

bond_coeff	 1    1.53000  299.67000 -501.77000  679.81000  # c,c
bond_coeff	 2    1.53000  299.67000 -501.77000  679.81000  # c,c1
bond_coeff	 3    1.10100  345.00000 -691.89000  844.60000  # c,hc
bond_coeff	 4    1.51850  293.17000 -603.78820  629.69000  # c,n4
bond_coeff	 5    1.43000  326.72730 -608.53060  689.03330  # c,o_2
bond_coeff	 6    1.42000  400.39540 -835.19510 1313.01420  # c,oc
bond_coeff	 7    1.52020  253.70670 -423.03700  396.90000  # c1,c_1
bond_coeff	 8    1.10100  345.00000 -691.89000  844.60000  # c1,hc
bond_coeff	 9    1.20200  851.14030 -1918.48820 2160.76590  # c_1,o_1
bond_coeff	10    1.36830  367.14810 -794.79080 1055.23190  # c_1,o_2
bond_coeff	11    1.41700  470.83610 -627.61790 1327.63450  # cp,cp
bond_coeff	12    1.09820  372.82510 -803.45260  894.31730  # cp,hc
bond_coeff	13    1.37680  428.87980 -738.23510 1114.96550  # cp,oc

# Angle Coeffs

angle_coeff	 1  112.67000   39.51600   -7.44300   -9.55830  # c,c,c
angle_coeff	 2  112.67000   39.51600   -7.44300   -9.55830  # c,c,c1
angle_coeff	 3  110.77000   41.45300  -10.60400    5.12900  # c,c,hc
angle_coeff	 4  112.13000   66.45200    4.86940   37.78600  # c,c,n4
angle_coeff	 5  107.41000   63.39070  -13.45130    1.66500  # c,c,o_2
angle_coeff	 6  111.27000   54.53810   -8.36420  -13.08380  # c,c,oc
angle_coeff	 7  112.67000   39.51600   -7.44300   -9.55830  # c,c1,c
angle_coeff	 8  108.52950   51.97470   -9.48510  -10.99850  # c,c1,c_1
angle_coeff	 9  110.77000   41.45300  -10.60400    5.12900  # c,c1,hc
angle_coeff	10  109.77000   44.82200   -3.91320    0.00000  # c,n4,c
angle_coeff	11  113.28800   61.28680  -28.97860    7.99290  # c,o_2,c_1
angle_coeff	12  102.96950   38.97390   -6.25950   -8.17100  # c,oc,cp
angle_coeff	13  112.67000   39.51600   -7.44300   -9.55830  # c1,c,c1
angle_coeff	14  110.77000   41.45300  -10.60400    5.12900  # c1,c,hc
angle_coeff	15  123.14510   55.54310  -17.21230    0.13480  # c1,c_1,o_1
angle_coeff	16  100.31820   38.86310   -3.83230   -7.98020  # c1,c_1,o_2
angle_coeff	17  107.73360   40.60990  -28.81210    0.00000  # c_1,c1,hc
angle_coeff	18  118.90000   61.02260  -34.99310    0.00000  # cp,cp,cp
angle_coeff	19  117.94000   35.15580  -12.46820    0.00000  # cp,cp,hc
angle_coeff	20  123.42000   73.67810  -21.67870    0.00000  # cp,cp,oc
angle_coeff	21  107.66000   39.64100  -12.92100   -2.43180  # hc,c,hc
angle_coeff	22  105.85000   72.26300  -28.19230    0.00000  # hc,c,n4
angle_coeff	23  107.68800   65.48010  -10.34980    5.88660  # hc,c,o_2
angle_coeff	24  108.72800   58.54460  -10.80880  -12.40060  # hc,c,oc
angle_coeff	25  120.79700   95.34460  -32.28690    6.37780  # o_1,c_1,o_2

# BondBond Coeffs

angle_coeff	 1 bb    0.00000    1.53000    1.53000  # c,c,c
angle_coeff	 2 bb    0.00000    1.53000    1.53000  # c,c,c1
angle_coeff	 3 bb    3.38720    1.53000    1.10100  # c,c,hc
angle_coeff	 4 bb   16.42800    1.53000    1.51850  # c,c,n4
angle_coeff	 5 bb   23.26470    1.53000    1.43000  # c,c,o_2
angle_coeff	 6 bb   11.43180    1.53000    1.42000  # c,c,oc
angle_coeff	 7 bb    0.00000    1.53000    1.53000  # c,c1,c
angle_coeff	 8 bb    5.41990    1.53000    1.52020  # c,c1,c_1
angle_coeff	 9 bb    3.38720    1.53000    1.10100  # c,c1,hc
angle_coeff	10 bb   14.95900    1.51850    1.51850  # c,n4,c
angle_coeff	11 bb   45.45030    1.43000    1.36830  # c,o_2,c_1
angle_coeff	12 bb    0.00000    1.42000    1.37680  # c,oc,cp
angle_coeff	13 bb    0.00000    1.53000    1.53000  # c1,c,c1
angle_coeff	14 bb    3.38720    1.53000    1.10100  # c1,c,hc
angle_coeff	15 bb   46.06850    1.52020    1.20200  # c1,c_1,o_1
angle_coeff	16 bb   19.10690    1.52020    1.36830  # c1,c_1,o_2
angle_coeff	17 bb    0.71150    1.52020    1.10100  # c_1,c1,hc
angle_coeff	18 bb   68.28560    1.41700    1.41700  # cp,cp,cp
angle_coeff	19 bb    1.07950    1.41700    1.09820  # cp,cp,hc
angle_coeff	20 bb   48.47540    1.41700    1.37680  # cp,cp,oc
angle_coeff	21 bb    5.33160    1.10100    1.10100  # hc,c,hc
angle_coeff	22 bb   -1.47970    1.10100    1.51850  # hc,c,n4
angle_coeff	23 bb    5.64540    1.10100    1.43000  # hc,c,o_2
angle_coeff	24 bb   23.19790    1.10100    1.42000  # hc,c,oc
angle_coeff	25 bb  121.48800    1.20200    1.36830  # o_1,c_1,o_2

# BondAngle Coeffs

angle_coeff	 1 ba    8.01600    8.01600    1.53000    1.53000  # c,c,c
angle_coeff	 2 ba    8.01600    8.01600    1.53000    1.53000  # c,c,c1
angle_coeff	 3 ba   20.75400   11.42100    1.53000    1.10100  # c,c,hc
angle_coeff	 4 ba   14.06200   49.77300    1.53000    1.51850  # c,c,n4
angle_coeff	 5 ba   23.39200   47.94870    1.53000    1.43000  # c,c,o_2
angle_coeff	 6 ba    2.68680   20.40330    1.53000    1.42000  # c,c,oc
angle_coeff	 7 ba    8.01600    8.01600    1.53000    1.53000  # c,c1,c
angle_coeff	 8 ba   18.16780   15.87580    1.53000    1.52020  # c,c1,c_1
angle_coeff	 9 ba   20.75400   11.42100    1.53000    1.10100  # c,c1,hc
angle_coeff	10 ba   23.09300   23.09300    1.51850    1.51850  # c,n4,c
angle_coeff	11 ba   41.91160   46.46080    1.43000    1.36830  # c,o_2,c_1
angle_coeff	12 ba    0.00000    0.00000    1.42000    1.37680  # c,oc,cp
angle_coeff	13 ba    8.01600    8.01600    1.53000    1.53000  # c1,c,c1
angle_coeff	14 ba   20.75400   11.42100    1.53000    1.10100  # c1,c,hc
angle_coeff	15 ba   34.99820   37.12980    1.52020    1.20200  # c1,c_1,o_1
angle_coeff	16 ba    1.34350    4.69780    1.52020    1.36830  # c1,c_1,o_2
angle_coeff	17 ba   12.46320    9.17650    1.52020    1.10100  # c_1,c1,hc
angle_coeff	18 ba   28.87080   28.87080    1.41700    1.41700  # cp,cp,cp
angle_coeff	19 ba   20.00330   24.21830    1.41700    1.09820  # cp,cp,hc
angle_coeff	20 ba   58.47900  107.68060    1.41700    1.37680  # cp,cp,oc
angle_coeff	21 ba   18.10300   18.10300    1.10100    1.10100  # hc,c,hc
angle_coeff	22 ba   15.88200   50.01800    1.10100    1.51850  # hc,c,n4
angle_coeff	23 ba    8.68640   57.49750    1.10100    1.43000  # hc,c,o_2
angle_coeff	24 ba    4.61890   55.32700    1.10100    1.42000  # hc,c,oc
angle_coeff	25 ba   76.26140   71.87610    1.20200    1.36830  # o_1,c_1,o_2

# Dihedral Coeffs

dihedral_coeff	 1    0.00000    0.00000    0.05140    0.00000   -0.14300    0.00000  # c,c,c,c
dihedral_coeff	 2    0.00000    0.00000    0.03160    0.00000   -0.16810    0.00000  # c,c,c,hc
dihedral_coeff	 3    0.00000    0.00000    0.00000    0.00000   -0.25000    0.00000  # c,c,c,o_2
dihedral_coeff	 4    0.00000    0.00000    0.05140    0.00000   -0.14300    0.00000  # c,c,c1,c
dihedral_coeff	 5    0.09720    0.00000    0.07220    0.00000   -0.25810    0.00000  # c,c,c1,c_1
dihedral_coeff	 6    0.00000    0.00000    0.03160    0.00000   -0.16810    0.00000  # c,c,c1,hc
dihedral_coeff	 7    0.70770    0.00000   -0.37440    0.00000   -0.19140    0.00000  # c,c,n4,c
dihedral_coeff	 8    0.00000    0.00000    0.00000    0.00000   -0.19320    0.00000  # c,c,o_2,c_1
dihedral_coeff	 9    0.00000    0.00000    0.00000    0.00000    0.13000  180.00000  # c,c,oc,cp
dihedral_coeff	10    0.00000    0.00000    0.05140    0.00000   -0.14300    0.00000  # c,c1,c,c1
dihedral_coeff	11    0.00000    0.00000    0.03160    0.00000   -0.16810    0.00000  # c,c1,c,hc
dihedral_coeff	12    0.04420    0.00000    0.02920    0.00000    0.05620    0.00000  # c,c1,c_1,o_1
dihedral_coeff	13    1.83410    0.00000    2.06030    0.00000   -0.01950    0.00000  # c,c1,c_1,o_2
dihedral_coeff	14    0.36240    0.00000    0.10120    0.00000   -0.24860    0.00000  # c,n4,c,hc
dihedral_coeff	15   -2.55940    0.00000    2.20130    0.00000    0.03250    0.00000  # c,o_2,c_1,c1
dihedral_coeff	16    0.00000    0.00000    2.20890    0.00000    0.00000    0.00000  # c,o_2,c_1,o_1
dihedral_coeff	17    0.00000    0.00000    1.50000    0.00000    0.00000    0.00000  # c,oc,cp,cp
dihedral_coeff	18    0.00000    0.00000    0.03160    0.00000   -0.16810    0.00000  # c1,c,c,hc
dihedral_coeff	19    0.09720    0.00000    0.07220    0.00000   -0.25810    0.00000  # c1,c,c1,c_1
dihedral_coeff	20    0.00000    0.00000    0.03160    0.00000   -0.16810    0.00000  # c1,c,c1,hc
dihedral_coeff	21   -0.02280    0.00000    0.02800    0.00000   -0.18630    0.00000  # c_1,c1,c,hc
dihedral_coeff	22    0.00000    0.00000    0.00000    0.00000   -0.19320    0.00000  # c_1,o_2,c,hc
dihedral_coeff	23    8.36670    0.00000    1.19320    0.00000    0.00000    0.00000  # cp,cp,cp,cp
dihedral_coeff	24    0.00000    0.00000    3.96610    0.00000    0.00000    0.00000  # cp,cp,cp,hc
dihedral_coeff	25    0.00000    0.00000    4.84980    0.00000    0.00000    0.00000  # cp,cp,cp,oc
dihedral_coeff	26    0.95130    0.00000    0.11550    0.00000    0.07200    0.00000  # cp,oc,c,hc
dihedral_coeff	27   -0.14320    0.00000    0.06170    0.00000   -0.10830    0.00000  # hc,c,c,hc
dihedral_coeff	28   -0.21790    0.00000   -0.41270    0.00000   -0.12520    0.00000  # hc,c,c,n4
dihedral_coeff	29    0.00000    0.00000    0.00000    0.00000   -0.25000    0.00000  # hc,c,c,o_2
dihedral_coeff	30   -0.14350    0.00000    0.25300    0.00000   -0.09050    0.00000  # hc,c,c,oc
dihedral_coeff	31   -0.14320    0.00000    0.06170    0.00000   -0.10830    0.00000  # hc,c,c1,hc
dihedral_coeff	32   -0.18040    0.00000    0.00120    0.00000    0.03710    0.00000  # hc,c1,c_1,o_1
dihedral_coeff	33   -0.63590    0.00000    1.48070    0.00000   -0.04380    0.00000  # hc,c1,c_1,o_2
dihedral_coeff	34    0.00000    0.00000    1.87690    0.00000    0.00000    0.00000  # hc,cp,cp,hc
dihedral_coeff	35    0.00000    0.00000    1.72340    0.00000    0.00000    0.00000  # hc,cp,cp,oc
dihedral_coeff	36    0.00000    0.00000    0.00000    0.00000    0.15800  180.00000  # n4,c,c,o_2
dihedral_coeff	37    0.00000    0.00000    0.00000    0.00000    0.15800  180.00000  # o_2,c,c,oc

# MiddleBondTorsion Coeffs

dihedral_coeff	 1 mbt  -17.78700   -7.18770    0.00000    1.53000  # c,c,c,c
dihedral_coeff	 2 mbt  -14.87900   -3.65810   -0.31380    1.53000  # c,c,c,hc
dihedral_coeff	 3 mbt    0.00000    0.00000    0.00000    1.53000  # c,c,c,o_2
dihedral_coeff	 4 mbt  -17.78700   -7.18770    0.00000    1.53000  # c,c,c1,c
dihedral_coeff	 5 mbt   -1.59450    0.22670   -0.69110    1.53000  # c,c,c1,c_1
dihedral_coeff	 6 mbt  -14.87900   -3.65810   -0.31380    1.53000  # c,c,c1,hc
dihedral_coeff	 7 mbt    6.25790   -5.08180    6.05110    1.51850  # c,c,n4,c
dihedral_coeff	 8 mbt   -5.43500    0.00000    0.00000    1.43000  # c,c,o_2,c_1
dihedral_coeff	 9 mbt    0.00000    0.00000    0.00000    1.42000  # c,c,oc,cp
dihedral_coeff	10 mbt  -17.78700   -7.18770    0.00000    1.53000  # c,c1,c,c1
dihedral_coeff	11 mbt  -14.87900   -3.65810   -0.31380    1.53000  # c,c1,c,hc
dihedral_coeff	12 mbt    0.33880   -0.10960    0.12190    1.52020  # c,c1,c_1,o_1
dihedral_coeff	13 mbt  -17.32800   -5.79000   -3.21140    1.52020  # c,c1,c_1,o_2
dihedral_coeff	14 mbt    0.76300    2.63030   -2.59740    1.51850  # c,n4,c,hc
dihedral_coeff	15 mbt    1.34450    3.55150   -4.92020    1.36830  # c,o_2,c_1,c1
dihedral_coeff	16 mbt    4.26000    0.00000    0.00000    1.36830  # c,o_2,c_1,o_1
dihedral_coeff	17 mbt    0.00000    0.00000    0.00000    1.37680  # c,oc,cp,cp
dihedral_coeff	18 mbt  -14.87900   -3.65810   -0.31380    1.53000  # c1,c,c,hc
dihedral_coeff	19 mbt   -1.59450    0.22670   -0.69110    1.53000  # c1,c,c1,c_1
dihedral_coeff	20 mbt  -14.87900   -3.65810   -0.31380    1.53000  # c1,c,c1,hc
dihedral_coeff	21 mbt   -3.50390    1.24580   -0.76100    1.53000  # c_1,c1,c,hc
dihedral_coeff	22 mbt    0.00000    0.00000    0.00000    1.43000  # c_1,o_2,c,hc
dihedral_coeff	23 mbt   27.59890   -2.31200    0.00000    1.41700  # cp,cp,cp,cp
dihedral_coeff	24 mbt    0.00000   -1.15210    0.00000    1.41700  # cp,cp,cp,hc
dihedral_coeff	25 mbt    0.00000    4.82550    0.00000    1.41700  # cp,cp,cp,oc
dihedral_coeff	26 mbt    0.00000    0.00000    0.00000    1.42000  # cp,oc,c,hc
dihedral_coeff	27 mbt  -14.26100   -0.53220   -0.48640    1.53000  # hc,c,c,hc
dihedral_coeff	28 mbt   -9.88260   -3.71380   -0.10220    1.53000  # hc,c,c,n4
dihedral_coeff	29 mbt    0.00000    0.00000    0.00000    1.53000  # hc,c,c,o_2
dihedral_coeff	30 mbt  -16.79750   -1.22960   -0.27500    1.53000  # hc,c,c,oc
dihedral_coeff	31 mbt  -14.26100   -0.53220   -0.48640    1.53000  # hc,c,c1,hc
dihedral_coeff	32 mbt    0.23590    0.91390    0.95940    1.52020  # hc,c1,c_1,o_1
dihedral_coeff	33 mbt  -13.76860   -2.59590    1.19340    1.52020  # hc,c1,c_1,o_2
dihedral_coeff	34 mbt    0.00000    4.82280    0.00000    1.41700  # hc,cp,cp,hc
dihedral_coeff	35 mbt    0.00000    5.54320    0.00000    1.41700  # hc,cp,cp,oc
dihedral_coeff	36 mbt    0.00000    0.00000    0.00000    1.53000  # n4,c,c,o_2
dihedral_coeff	37 mbt    0.00000    0.00000    0.00000    1.53000  # o_2,c,c,oc

# EndBondTorsion Coeffs

dihedral_coeff	 1 ebt   -0.07320    0.00000    0.00000   -0.07320    0.00000    0.00000    1.53000    1.53000  # c,c,c,c
dihedral_coeff	 2 ebt    0.24860    0.24220   -0.09250    0.08140    0.05910    0.22190    1.53000    1.10100  # c,c,c,hc
dihedral_coeff	 3 ebt    0.00000    0.00000    0.00000    0.00000    0.00000    0.00000    1.53000    1.43000  # c,c,c,o_2
dihedral_coeff	 4 ebt   -0.07320    0.00000    0.00000   -0.07320    0.00000    0.00000    1.53000    1.53000  # c,c,c1,c
dihedral_coeff	 5 ebt    0.00620   -0.00020    0.00360    0.00550    0.00600   -0.00090    1.53000    1.52020  # c,c,c1,c_1
dihedral_coeff	 6 ebt    0.24860    0.24220   -0.09250    0.08140    0.05910    0.22190    1.53000    1.10100  # c,c,c1,hc
dihedral_coeff	 7 ebt    0.00000    0.00000    0.00000    0.00000    0.00000    0.00000    1.53000    1.51850  # c,c,n4,c
dihedral_coeff	 8 ebt    0.00000    0.00000    0.00000    0.00000    0.00000    0.00000    1.53000    1.36830  # c,c,o_2,c_1
dihedral_coeff	 9 ebt    0.00000    0.00000    0.00000    0.00000    0.00000    0.00000    1.53000    1.37680  # c,c,oc,cp
dihedral_coeff	10 ebt   -0.07320    0.00000    0.00000   -0.07320    0.00000    0.00000    1.53000    1.53000  # c,c1,c,c1
dihedral_coeff	11 ebt    0.24860    0.24220   -0.09250    0.08140    0.05910    0.22190    1.53000    1.10100  # c,c1,c,hc
dihedral_coeff	12 ebt    0.26540    0.05030    0.10460   -0.28100    0.08160   -0.15220    1.53000    1.20200  # c,c1,c_1,o_1
dihedral_coeff	13 ebt    0.00000    0.00000    0.00000    0.00000    0.00000    0.00000    1.53000    1.36830  # c,c1,c_1,o_2
dihedral_coeff	14 ebt    0.00000    0.00000    0.00000    0.00000    0.00000    0.00000    1.51850    1.10100  # c,n4,c,hc
dihedral_coeff	15 ebt    0.00000    0.00000    0.00000    0.00000    0.00000    0.00000    1.43000    1.52020  # c,o_2,c_1,c1
dihedral_coeff	16 ebt    0.00000    0.00000    0.00000    0.00000    0.00000    0.00000    1.43000    1.20200  # c,o_2,c_1,o_1
dihedral_coeff	17 ebt    0.00000    0.00000    0.00000    0.00000    0.00000    0.00000    1.42000    1.41700  # c,oc,cp,cp
dihedral_coeff	18 ebt    0.24860    0.24220   -0.09250    0.08140    0.05910    0.22190    1.53000    1.10100  # c1,c,c,hc
dihedral_coeff	19 ebt    0.00620   -0.00020    0.00360    0.00550    0.00600   -0.00090    1.53000    1.52020  # c1,c,c1,c_1
dihedral_coeff	20 ebt    0.24860    0.24220   -0.09250    0.08140    0.05910    0.22190    1.53000    1.10100  # c1,c,c1,hc
dihedral_coeff	21 ebt   -0.02040    0.36280   -0.44260   -0.00970   -0.03150   -0.07550    1.52020    1.10100  # c_1,c1,c,hc
dihedral_coeff	22 ebt    0.00000    0.00000    0.00000    0.00000    0.00000    0.00000    1.36830    1.10100  # c_1,o_2,c,hc
dihedral_coeff	23 ebt   -0.11850    6.32040    0.00000   -0.11850    6.32040    0.00000    1.41700    1.41700  # cp,cp,cp,cp
dihedral_coeff	24 ebt    0.00000   -6.89580    0.00000    0.00000   -0.46690    0.00000    1.41700    1.09820  # cp,cp,cp,hc
dihedral_coeff	25 ebt    0.00000    0.26550    0.00000    0.00000    4.89050    0.00000    1.41700    1.37680  # cp,cp,cp,oc
dihedral_coeff	26 ebt    0.00000    0.00000    0.00000    0.00000    0.00000    0.00000    1.37680    1.10100  # cp,oc,c,hc
dihedral_coeff	27 ebt    0.21300    0.31200    0.07770    0.21300    0.31200    0.07770    1.10100    1.10100  # hc,c,c,hc
dihedral_coeff	28 ebt    0.00000    0.00000    0.00000    0.00000    0.00000    0.00000    1.10100    1.51850  # hc,c,c,n4
dihedral_coeff	29 ebt    0.00000    0.00000    0.00000    0.00000    0.00000    0.00000    1.10100    1.43000  # hc,c,c,o_2
dihedral_coeff	30 ebt    0.96810    0.95510    0.04360    0.59030    0.66690    0.85840    1.10100    1.42000  # hc,c,c,oc
dihedral_coeff	31 ebt    0.21300    0.31200    0.07770    0.21300    0.31200    0.07770    1.10100    1.10100  # hc,c,c1,hc
dihedral_coeff	32 ebt    1.21430    0.28310    0.39160   -0.22980    0.03540    0.38530    1.10100    1.20200  # hc,c1,c_1,o_1
dihedral_coeff	33 ebt    0.00000    0.00000    0.00000    0.00000    0.00000    0.00000    1.10100    1.36830  # hc,c1,c_1,o_2
dihedral_coeff	34 ebt    0.00000   -0.68900    0.00000    0.00000   -0.68900    0.00000    1.09820    1.09820  # hc,cp,cp,hc
dihedral_coeff	35 ebt    0.00000   -1.58670    0.00000    0.00000    4.26410    0.00000    1.09820    1.37680  # hc,cp,cp,oc
dihedral_coeff	36 ebt    0.00000    0.00000    0.00000    0.00000    0.00000    0.00000    1.51850    1.43000  # n4,c,c,o_2
dihedral_coeff	37 ebt    0.00000    0.00000    0.00000    0.00000    0.00000    0.00000    1.43000    1.42000  # o_2,c,c,oc

# AngleTorsion Coeffs

dihedral_coeff	 1 at    0.38860   -0.31390    0.13890    0.38860   -0.31390    0.13890  112.67000  112.67000  # c,c,c,c
dihedral_coeff	 2 at   -0.24540    0.00000   -0.11360    0.31130    0.45160   -0.19880  112.67000  110.77000  # c,c,c,hc
dihedral_coeff	 3 at    0.00000    0.00000    0.00000    0.00000    0.00000    0.00000  112.67000  107.41000  # c,c,c,o_2
dihedral_coeff	 4 at    0.38860   -0.31390    0.13890    0.38860   -0.31390    0.13890  112.67000  112.67000  # c,c,c1,c
dihedral_coeff	 5 at   -0.26070    0.32030   -0.22830    0.05150   -0.06740   -0.04740  112.67000  108.52950  # c,c,c1,c_1
dihedral_coeff	 6 at   -0.24540    0.00000   -0.11360    0.31130    0.45160   -0.19880  112.67000  110.77000  # c,c,c1,hc
dihedral_coeff	 7 at   -1.28770    4.80560    1.14810   -3.76820    2.74640   -1.62720  112.13000  109.77000  # c,c,n4,c
dihedral_coeff	 8 at    0.00000    0.00000    0.00000    0.00000    0.00000    0.00000  107.41000  113.28800  # c,c,o_2,c_1
dihedral_coeff	 9 at    0.00000    0.00000    0.00000    0.00000    0.00000    0.00000  111.27000  102.96950  # c,c,oc,cp
dihedral_coeff	10 at    0.38860   -0.31390    0.13890    0.38860   -0.31390    0.13890  112.67000  112.67000  # c,c1,c,c1
dihedral_coeff	11 at   -0.24540    0.00000   -0.11360    0.31130    0.45160   -0.19880  112.67000  110.77000  # c,c1,c,hc
dihedral_coeff	12 at    0.08850   -1.37030   -0.54520    0.67500    0.59650    0.67250  108.52950  123.14510  # c,c1,c_1,o_1
dihedral_coeff	13 at    0.00000    0.00000    0.00000    0.00000    0.00000    0.00000  108.52950  100.31820  # c,c1,c_1,o_2
dihedral_coeff	14 at    1.68400    0.40870    0.42930   -0.08390    1.54770   -0.22840  109.77000  105.85000  # c,n4,c,hc
dihedral_coeff	15 at    0.00000    0.00000    0.00000    0.00000    0.00000    0.00000  113.28800  100.31820  # c,o_2,c_1,c1
dihedral_coeff	16 at    0.00000    0.00000    0.00000    0.00000    0.00000    0.00000  113.28800  120.79700  # c,o_2,c_1,o_1
dihedral_coeff	17 at    0.00000    0.00000    0.00000    0.00000    0.00000    0.00000  102.96950  123.42000  # c,oc,cp,cp
dihedral_coeff	18 at   -0.24540    0.00000   -0.11360    0.31130    0.45160   -0.19880  112.67000  110.77000  # c1,c,c,hc
dihedral_coeff	19 at   -0.26070    0.32030   -0.22830    0.05150   -0.06740   -0.04740  112.67000  108.52950  # c1,c,c1,c_1
dihedral_coeff	20 at   -0.24540    0.00000   -0.11360    0.31130    0.45160   -0.19880  112.67000  110.77000  # c1,c,c1,hc
dihedral_coeff	21 at   -0.74660   -0.94480   -0.63210    0.01620    1.42110   -1.40920  108.52950  110.77000  # c_1,c1,c,hc
dihedral_coeff	22 at    0.00000    0.00000    0.00000    0.00000    0.00000    0.00000  113.28800  107.68800  # c_1,o_2,c,hc
dihedral_coeff	23 at    1.97670    1.02390    0.00000    1.97670    1.02390    0.00000  118.90000  118.90000  # cp,cp,cp,cp
dihedral_coeff	24 at    0.00000    2.50140    0.00000    0.00000    2.71470    0.00000  118.90000  117.94000  # cp,cp,cp,hc
dihedral_coeff	25 at    0.00000   10.01550    0.00000    0.00000    1.74040    0.00000  118.90000  123.42000  # cp,cp,cp,oc
dihedral_coeff	26 at    0.00000    0.00000    0.00000    0.00000    0.00000    0.00000  102.96950  108.72800  # cp,oc,c,hc
dihedral_coeff	27 at   -0.80850    0.55690   -0.24660   -0.80850    0.55690   -0.24660  110.77000  110.77000  # hc,c,c,hc
dihedral_coeff	28 at   -3.41090    0.64760   -0.95840   -2.86940    1.61720   -1.46270  110.77000  112.13000  # hc,c,c,n4
dihedral_coeff	29 at    0.00000    0.00000    0.00000    0.00000    0.00000    0.00000  110.77000  107.41000  # hc,c,c,o_2
dihedral_coeff	30 at    2.36680    2.49200   -1.01220   -0.18920    0.49180    0.72730  110.77000  111.27000  # hc,c,c,oc
dihedral_coeff	31 at   -0.80850    0.55690   -0.24660   -0.80850    0.55690   -0.24660  110.77000  110.77000  # hc,c,c1,hc
dihedral_coeff	32 at    9.12990   -0.48470    0.35820   -1.49460    0.73080   -0.20830  107.73360  123.14510  # hc,c1,c_1,o_1
dihedral_coeff	33 at    0.00000    0.00000    0.00000    0.00000    0.00000    0.00000  107.73360  100.31820  # hc,c1,c_1,o_2
dihedral_coeff	34 at    0.00000    2.45010    0.00000    0.00000    2.45010    0.00000  117.94000  117.94000  # hc,cp,cp,hc
dihedral_coeff	35 at    0.00000    1.87290    0.00000    0.00000    2.57060    0.00000  117.94000  123.42000  # hc,cp,cp,oc
dihedral_coeff	36 at    0.00000    0.00000    0.00000    0.00000    0.00000    0.00000  112.13000  107.41000  # n4,c,c,o_2
dihedral_coeff	37 at    0.00000    0.00000    0.00000    0.00000    0.00000    0.00000  107.41000  111.27000  # o_2,c,c,oc

# AngleAngleTorsion Coeffs

dihedral_coeff	 1 aat  -22.04500  112.67000  112.67000  # c,c,c,c
dihedral_coeff	 2 aat  -16.16400  112.67000  110.77000  # c,c,c,hc
dihedral_coeff	 3 aat    0.00000  112.67000  107.41000  # c,c,c,o_2
dihedral_coeff	 4 aat  -22.04500  112.67000  112.67000  # c,c,c1,c
dihedral_coeff	 5 aat   -0.38010  112.67000  108.52950  # c,c,c1,c_1
dihedral_coeff	 6 aat  -16.16400  112.67000  110.77000  # c,c,c1,hc
dihedral_coeff	 7 aat  -18.15940  112.13000  109.77000  # c,c,n4,c
dihedral_coeff	 8 aat    0.00000  107.41000  113.28800  # c,c,o_2,c_1
dihedral_coeff	 9 aat    0.00000  111.27000  102.96950  # c,c,oc,cp
dihedral_coeff	10 aat  -22.04500  112.67000  112.67000  # c,c1,c,c1
dihedral_coeff	11 aat  -16.16400  112.67000  110.77000  # c,c1,c,hc
dihedral_coeff	12 aat   -8.01900  108.52950  123.14510  # c,c1,c_1,o_1
dihedral_coeff	13 aat    0.00000  108.52950  100.31820  # c,c1,c_1,o_2
dihedral_coeff	14 aat  -14.04430  109.77000  105.85000  # c,n4,c,hc
dihedral_coeff	15 aat    0.00000  113.28800  100.31820  # c,o_2,c_1,c1
dihedral_coeff	16 aat    0.00000  113.28800  120.79700  # c,o_2,c_1,o_1
dihedral_coeff	17 aat    0.00000  102.96950  123.42000  # c,oc,cp,cp
dihedral_coeff	18 aat  -16.16400  112.67000  110.77000  # c1,c,c,hc
dihedral_coeff	19 aat   -0.38010  112.67000  108.52950  # c1,c,c1,c_1
dihedral_coeff	20 aat  -16.16400  112.67000  110.77000  # c1,c,c1,hc
dihedral_coeff	21 aat   -5.36240  108.52950  110.77000  # c_1,c1,c,hc
dihedral_coeff	22 aat    0.00000  113.28800  107.68800  # c_1,o_2,c,hc
dihedral_coeff	23 aat    0.00000  118.90000  118.90000  # cp,cp,cp,cp
dihedral_coeff	24 aat   -4.81410  118.90000  117.94000  # cp,cp,cp,hc
dihedral_coeff	25 aat  -21.02470  118.90000  123.42000  # cp,cp,cp,oc
dihedral_coeff	26 aat    0.00000  102.96950  108.72800  # cp,oc,c,hc
dihedral_coeff	27 aat  -12.56400  110.77000  110.77000  # hc,c,c,hc
dihedral_coeff	28 aat  -18.92630  110.77000  112.13000  # hc,c,c,n4
dihedral_coeff	29 aat    0.00000  110.77000  107.41000  # hc,c,c,o_2
dihedral_coeff	30 aat  -20.20060  110.77000  111.27000  # hc,c,c,oc
dihedral_coeff	31 aat  -12.56400  110.77000  110.77000  # hc,c,c1,hc
dihedral_coeff	32 aat  -15.34960  107.73360  123.14510  # hc,c1,c_1,o_1
dihedral_coeff	33 aat    0.00000  107.73360  100.31820  # hc,c1,c_1,o_2
dihedral_coeff	34 aat    0.35980  117.94000  117.94000  # hc,cp,cp,hc
dihedral_coeff	35 aat    4.22960  117.94000  123.42000  # hc,cp,cp,oc
dihedral_coeff	36 aat    0.00000  112.13000  107.41000  # n4,c,c,o_2
dihedral_coeff	37 aat    0.00000  107.41000  111.27000  # o_2,c,c,oc

# BondBond13 Coeffs

dihedral_coeff	 1 bb13    0.00000    1.53000    1.53000  # c,c,c,c
dihedral_coeff	 2 bb13    0.00000    1.53000    1.10100  # c,c,c,hc
dihedral_coeff	 3 bb13    0.00000    1.53000    1.43000  # c,c,c,o_2
dihedral_coeff	 4 bb13    0.00000    1.53000    1.53000  # c,c,c1,c
dihedral_coeff	 5 bb13    0.00000    1.53000    1.52020  # c,c,c1,c_1
dihedral_coeff	 6 bb13    0.00000    1.53000    1.10100  # c,c,c1,hc
dihedral_coeff	 7 bb13    0.00000    1.53000    1.51850  # c,c,n4,c
dihedral_coeff	 8 bb13    0.00000    1.53000    1.36830  # c,c,o_2,c_1
dihedral_coeff	 9 bb13    0.00000    1.53000    1.37680  # c,c,oc,cp
dihedral_coeff	10 bb13    0.00000    1.53000    1.53000  # c,c1,c,c1
dihedral_coeff	11 bb13    0.00000    1.53000    1.10100  # c,c1,c,hc
dihedral_coeff	12 bb13    0.00000    1.53000    1.20200  # c,c1,c_1,o_1
dihedral_coeff	13 bb13    0.00000    1.53000    1.36830  # c,c1,c_1,o_2
dihedral_coeff	14 bb13    0.00000    1.51850    1.10100  # c,n4,c,hc
dihedral_coeff	15 bb13    0.00000    1.43000    1.52020  # c,o_2,c_1,c1
dihedral_coeff	16 bb13    0.00000    1.43000    1.20200  # c,o_2,c_1,o_1
dihedral_coeff	17 bb13    0.00000    1.42000    1.41700  # c,oc,cp,cp
dihedral_coeff	18 bb13    0.00000    1.53000    1.10100  # c1,c,c,hc
dihedral_coeff	19 bb13    0.00000    1.53000    1.52020  # c1,c,c1,c_1
dihedral_coeff	20 bb13    0.00000    1.53000    1.10100  # c1,c,c1,hc
dihedral_coeff	21 bb13    0.00000    1.52020    1.10100  # c_1,c1,c,hc
dihedral_coeff	22 bb13    0.00000    1.36830    1.10100  # c_1,o_2,c,hc
dihedral_coeff	23 bb13   53.00000    1.41700    1.41700  # cp,cp,cp,cp
dihedral_coeff	24 bb13   -6.27410    1.41700    1.09820  # cp,cp,cp,hc
dihedral_coeff	25 bb13   -2.24360    1.41700    1.37680  # cp,cp,cp,oc
dihedral_coeff	26 bb13    0.00000    1.37680    1.10100  # cp,oc,c,hc
dihedral_coeff	27 bb13    0.00000    1.10100    1.10100  # hc,c,c,hc
dihedral_coeff	28 bb13    0.00000    1.10100    1.51850  # hc,c,c,n4
dihedral_coeff	29 bb13    0.00000    1.10100    1.43000  # hc,c,c,o_2
dihedral_coeff	30 bb13    0.00000    1.10100    1.42000  # hc,c,c,oc
dihedral_coeff	31 bb13    0.00000    1.10100    1.10100  # hc,c,c1,hc
dihedral_coeff	32 bb13    0.00000    1.10100    1.20200  # hc,c1,c_1,o_1
dihedral_coeff	33 bb13    0.00000    1.10100    1.36830  # hc,c1,c_1,o_2
dihedral_coeff	34 bb13   -1.70770    1.09820    1.09820  # hc,cp,cp,hc
dihedral_coeff	35 bb13    2.05170    1.09820    1.37680  # hc,cp,cp,oc
dihedral_coeff	36 bb13    0.00000    1.51850    1.43000  # n4,c,c,o_2
dihedral_coeff	37 bb13    0.00000    1.43000    1.42000  # o_2,c,c,oc

# Improper Coeffs

improper_coeff	 1    0.00000    0.00000  # c,c,c,hc
improper_coeff	 2    0.00000    0.00000  # c,c,c1,hc
improper_coeff	 3    0.00000    0.00000  # c,c,hc,hc
improper_coeff	 4    0.00000    0.00000  # c,c,hc,o_2
improper_coeff	 5    0.00000    0.00000  # c,c,n4,hc
improper_coeff	 6    0.00000    0.00000  # c,c,oc,hc
improper_coeff	 7    0.00000    0.00000  # c,c1,c1,hc
improper_coeff	 8    0.00000    0.00000  # c,c1,hc,hc
improper_coeff	 9    0.00000    0.00000  # c,hc,hc,hc
improper_coeff	10    0.00000    0.00000  # c,hc,hc,n4
improper_coeff	11    0.00000    0.00000  # c,hc,hc,o_2
improper_coeff	12    0.00000    0.00000  # c,hc,hc,oc
improper_coeff	13    0.00000    0.00000  # c1,c,c,c_1
improper_coeff	14    0.00000    0.00000  # c1,c,c,hc
improper_coeff	15    0.00000    0.00000  # c1,c,c_1,hc
improper_coeff	16   46.92640    0.00000  # c_1,c1,o_2,o_1
improper_coeff	17    4.89120    0.00000  # cp,cp,cp,hc
improper_coeff	18   13.04210    0.00000  # cp,cp,cp,oc
improper_coeff	19    0.00000    0.00000  # n4,c,c,c

# AngleAngle Coeffs

improper_coeff	 1 aa   -1.31990   -1.31990    0.11840  112.67000  110.77000  110.77000  # c,c,c,hc
improper_coeff	 2 aa   -1.31990   -1.31990    0.11840  112.67000  110.77000  110.77000  # c,c,c1,hc
improper_coeff	 3 aa    0.27380   -0.48250    0.27380  110.77000  110.77000  107.66000  # c,c,hc,hc
improper_coeff	 4 aa    0.00000    0.00000    0.00000  110.77000  107.41000  107.68800  # c,c,hc,o_2
improper_coeff	 5 aa    7.02920    6.02740    4.24400  112.13000  110.77000  105.85000  # c,c,n4,hc
improper_coeff	 6 aa    0.16890    2.59260    3.91770  111.27000  110.77000  108.72800  # c,c,oc,hc
improper_coeff	 7 aa   -1.31990   -1.31990    0.11840  112.67000  110.77000  110.77000  # c,c1,c1,hc
improper_coeff	 8 aa    0.27380   -0.48250    0.27380  110.77000  110.77000  107.66000  # c,c1,hc,hc
improper_coeff	 9 aa   -0.31570   -0.31570   -0.31570  107.66000  107.66000  107.66000  # c,hc,hc,hc
improper_coeff	10 aa    3.54750    3.54750    7.33650  107.66000  105.85000  105.85000  # c,hc,hc,n4
improper_coeff	11 aa    0.00000    0.00000    0.00000  107.66000  107.68800  107.68800  # c,hc,hc,o_2
improper_coeff	12 aa    2.42590    2.42590    2.12830  107.66000  108.72800  108.72800  # c,hc,hc,oc
improper_coeff	13 aa    0.00000    0.00000    0.00000  112.67000  108.52950  108.52950  # c1,c,c,c_1
improper_coeff	14 aa   -1.31990   -1.31990    0.11840  112.67000  110.77000  110.77000  # c1,c,c,hc
improper_coeff	15 aa    2.04030   -1.82020    1.08270  108.52950  110.77000  107.73360  # c1,c,c_1,hc
improper_coeff	16 aa    0.00000    0.00000    0.00000  100.31820  123.14510  120.79700  # c_1,c1,o_2,o_1
improper_coeff	17 aa    0.00000    0.00000    0.00000  118.90000  117.94000  117.94000  # cp,cp,cp,hc
improper_coeff	18 aa    0.00000    0.00000    0.00000  118.90000  123.42000  123.42000  # cp,cp,cp,oc
improper_coeff	19 aa   -1.51550   -1.51550   -1.51550  109.77000  109.77000  109.77000  # n4,c,c,c

pair_modify     tail no
variable        ZHALF   equal 40.0     # половина целевой толщины плёнки, A
variable        ZBOX    equal 160.0    # полувысота ячейки (вакуум), A
variable        NZBOX   equal "-v_ZBOX"
variable        NZHALF  equal "-v_ZHALF"
variable        SOFTCUT equal 3.0
variable        SOFTA   equal 60.0
variable        NPUSH   equal 150000
variable        NHOLD   equal 50000

neighbor        2.0 bin
neigh_modify    delay 0 every 1 check yes

pair_style      soft $(v_SOFTCUT)
pair_style      soft 3
comm_modify     cutoff 8.0
pair_coeff      * * $(v_SOFTA)
pair_coeff      * * 60
min_modify dmax 0.1
min_style cg
minimize 1.0e-4 1.0e-5 5000 50000
Generated 0 of 36 mixed pair_coeff terms from geometric mixing rule
Neighbor list info ...
  update: every = 1 steps, delay = 0 steps, check = yes
  max neighbors/atom: 2000, page size: 100000
  master list distance cutoff = 5
  ghost atom cutoff = 8
  binsize = 5, bins = 17 17 64
  1 neighbor lists, perpetual/occasional/extra = 1 0 0
  (1) pair soft/kk, perpetual
      attributes: full, newton off, kokkos_device
      pair build: full/bin/kk/device
      stencil: full/bin/3d
      bin: kk/device
WARNING: Fix MINIMIZE/kk not compatible with sending data in Kokkos communication (src/KOKKOS/comm_kokkos.cpp:799)
WARNING: Fix with atom-based arrays not compatible with sending data in Kokkos communication, switching to classic exchange/border communication (src/KOKKOS/comm_kokkos.cpp:812)
WARNING: Fix MINIMIZE/kk not compatible with Kokkos sorting on device (src/KOKKOS/atom_kokkos.cpp:213)
WARNING: Fix with atom-based arrays not compatible with Kokkos sorting on device, switching to classic host sorting (src/KOKKOS/atom_kokkos.cpp:219)
Per MPI rank memory allocation (min/avg/max) = 94.73 | 94.73 | 94.73 Mbytes
   Step          Temp          E_pair         E_mol          TotEng         Press     
         0   0              729397.3       83646.382      813043.68      63835.926    
       449   0              98374.886      108561.08      206935.96      6461.015     
Loop time of 17.1137 on 1 procs for 449 steps with 35235 atoms

99.8% CPU use with 1 MPI tasks x 1 OpenMP threads

Minimization stats:
  Stopping criterion = energy tolerance
  Energy initial, next-to-last, final = 
      813043.679903146   206948.087232679   206935.963433754
  Force two-norm initial, final = 13564.59 338.60697
  Force max component initial, final = 211.86443 100.48275
  Final line search alpha, max atom move = 8.6339961e-05 0.0086756764
  Iterations, force evaluations = 449 471

MPI task timing breakdown:
Section |  min time  |  avg time  |  max time  |%varavg| %total
---------------------------------------------------------------
Pair    | 2.5324     | 2.5324     | 2.5324     |   0.0 | 14.80
Bond    | 7.276      | 7.276      | 7.276      |   0.0 | 42.52
Neigh   | 0.68642    | 0.68642    | 0.68642    |   0.0 |  4.01
Comm    | 0.40967    | 0.40967    | 0.40967    |   0.0 |  2.39
Output  | 0          | 0          | 0          |   0.0 |  0.00
Modify  | 0          | 0          | 0          |   0.0 |  0.00
Other   |            | 6.209      |            |       | 36.28

Nlocal:          35235 ave       35235 max       35235 min
Histogram: 1 0 0 0 0 0 0 0 0 0
Nghost:          15980 ave       15980 max       15980 min
Histogram: 1 0 0 0 0 0 0 0 0 0
Neighs:              0 ave           0 max           0 min
Histogram: 1 0 0 0 0 0 0 0 0 0
FullNghs:   1.0781e+06 ave  1.0781e+06 max  1.0781e+06 min
Histogram: 1 0 0 0 0 0 0 0 0 0

Total # of neighbors = 1078102
Ave neighs/atom = 30.597474
Ave special neighs/atom = 5.7692635
Neighbor list builds = 15
Dangerous builds = 0
min_style cg
minimize 1.0e-8 1.0e-10 20000 200000
Generated 0 of 36 mixed pair_coeff terms from geometric mixing rule
WARNING: Fix MINIMIZE/kk not compatible with Kokkos sorting on device (src/KOKKOS/atom_kokkos.cpp:213)
WARNING: Fix with atom-based arrays not compatible with Kokkos sorting on device, switching to classic host sorting (src/KOKKOS/atom_kokkos.cpp:219)
Per MPI rank memory allocation (min/avg/max) = 95.65 | 95.65 | 95.65 Mbytes
   Step          Temp          E_pair         E_mol          TotEng         Press     
       449   0              98374.886      108561.08      206935.96      6461.015     
       910   0              81395.177      98730.603      180125.78      3355.8499    
Loop time of 38.5826 on 1 procs for 461 steps with 35235 atoms

100.0% CPU use with 1 MPI tasks x 1 OpenMP threads

Minimization stats:
  Stopping criterion = energy tolerance
  Energy initial, next-to-last, final = 
      206935.963433754    180125.78027655   180125.779185302
  Force two-norm initial, final = 338.60697 191.23338
  Force max component initial, final = 100.48275 97.081234
  Final line search alpha, max atom move = 1.0006752e-06 9.7146785e-05
  Iterations, force evaluations = 461 1324

MPI task timing breakdown:
Section |  min time  |  avg time  |  max time  |%varavg| %total
---------------------------------------------------------------
Pair    | 6.6849     | 6.6849     | 6.6849     |   0.0 | 17.33
Bond    | 21.293     | 21.293     | 21.293     |   0.0 | 55.19
Neigh   | 0.50815    | 0.50815    | 0.50815    |   0.0 |  1.32
Comm    | 0.17113    | 0.17113    | 0.17113    |   0.0 |  0.44
Output  | 0          | 0          | 0          |   0.0 |  0.00
Modify  | 0          | 0          | 0          |   0.0 |  0.00
Other   |            | 9.926      |            |       | 25.73

Nlocal:          35235 ave       35235 max       35235 min
Histogram: 1 0 0 0 0 0 0 0 0 0
Nghost:          16055 ave       16055 max       16055 min
Histogram: 1 0 0 0 0 0 0 0 0 0
Neighs:              0 ave           0 max           0 min
Histogram: 1 0 0 0 0 0 0 0 0 0
FullNghs:  1.00436e+06 ave 1.00436e+06 max 1.00436e+06 min
Histogram: 1 0 0 0 0 0 0 0 0 0

Total # of neighbors = 1004364
Ave neighs/atom = 28.504725
Ave special neighs/atom = 5.7692635
Neighbor list builds = 11
Dangerous builds = 0

timestep        0.1
fix             1 all nve/limit 0.05
fix             2 all viscous 50.0
fix             3 all dt/reset 1 NULL 0.001 0.1
thermo          1000
run             10000
Generated 0 of 36 mixed pair_coeff terms from geometric mixing rule
Per MPI rank memory allocation (min/avg/max) = 92.1 | 92.1 | 92.1 Mbytes
   Step          Temp          E_pair         E_mol          TotEng         Press     
       910   0              81395.177      98730.603      180125.78      3355.8499    
      1000   0.00010988151  81395.17       98730.598      180125.78      3355.8534    
      2000   0.014939089    81394.167      98730.02       180125.76      3355.6046    
      3000   0.04918072     81391.618      98728.846      180125.63      3354.9848    
      4000   0.093280391    81387.853      98727.693      180125.34      3354.1381    
      5000   0.14101425     81383.27       98726.804      180124.88      3353.2149    
      6000   0.19128361     81378.266      98726.393      180124.75      3352.3427    
      7000   0.24511006     81373.205      98724.546      180123.49      3351.5956    
      8000   0.30179586     81368.362      98722.542      180122.6       3351.059     
      9000   0.35942101     81363.87       98719.991      180121.61      3350.7658    
     10000   0.4178502      81359.669      98717          180120.55      3350.7084    
     10910   0.47458257     81355.918      98713.796      180119.56      3350.7798    
Loop time of 274.106 on 1 procs for 10000 steps with 35235 atoms

Performance: 0.003 ns/day, 7614.059 hours/ns, 36.482 timesteps/s, 1.285 Matom-step/s
100.0% CPU use with 1 MPI tasks x 1 OpenMP threads

MPI task timing breakdown:
Section |  min time  |  avg time  |  max time  |%varavg| %total
---------------------------------------------------------------
Pair    | 0.31192    | 0.31192    | 0.31192    |   0.0 |  0.11
Bond    | 188.57     | 188.57     | 188.57     |   0.0 | 68.79
Neigh   | 0          | 0          | 0          |   0.0 |  0.00
Comm    | 0.094624   | 0.094624   | 0.094624   |   0.0 |  0.03
Output  | 0.015436   | 0.015436   | 0.015436   |   0.0 |  0.01
Modify  | 66.737     | 66.737     | 66.737     |   0.0 | 24.35
Other   |            | 18.38      |            |       |  6.70

Nlocal:          35235 ave       35235 max       35235 min
Histogram: 1 0 0 0 0 0 0 0 0 0
Nghost:          16053 ave       16053 max       16053 min
Histogram: 1 0 0 0 0 0 0 0 0 0
Neighs:              0 ave           0 max           0 min
Histogram: 1 0 0 0 0 0 0 0 0 0
FullNghs:  1.00396e+06 ave 1.00396e+06 max 1.00396e+06 min
Histogram: 1 0 0 0 0 0 0 0 0 0

Total # of neighbors = 1003962
Ave neighs/atom = 28.493316
Ave special neighs/atom = 5.7692635
Neighbor list builds = 0
Dangerous builds = 0
# fix_modify      1 energy yes
unfix           1
unfix           2
unfix           3

velocity        all zero linear
velocity        all zero angular

velocity        all create 10 12345 mom yes rot yes dist gaussian

timestep        0.1
fix             rNVT all nvt temp 300.0 300.0 50.0
thermo          500
run             10000
Generated 0 of 36 mixed pair_coeff terms from geometric mixing rule
Per MPI rank memory allocation (min/avg/max) = 92.1 | 92.1 | 92.1 Mbytes
   Step          Temp          E_pair         E_mol          TotEng         Press     
     10910   10             81355.918      98713.796      181119.97      3372.1694    
     11000   5.0537829      81455.03       99150.937      181136.75      3368.8825    
     11500   19.09029       80785.906      98563.327      181354.21      3262.8722    
     12000   46.520142      79361.248      97869.004      182116.07      3000.3886    
     12500   82.029018      77946.931      97133.674      183695.77      2749.4266    
     13000   122.85992      76851.067      96452.859      186207.39      2522.3125    
     13500   168.02964      75678.06       96290.243      189615.76      2273.251     
     14000   215.07329      74609.181      96510.811      193708.25      1992.4181    
     14500   260.33979      73930.866      96756.322      198029.6       1823.933     
     15000   297.45046      73424.895      97125.283      201790.17      1652.1282    
     15500   318.44508      73062.492      97204.693      203712.15      1536.2995    
     16000   312.48191      72229.005      97081.081      202128.77      1276.1711    
     16500   296.58272      71883.691      96515.408      199547.95      1162.7709    
     17000   293.02558      71079.515      96444.104      198298.88      972.62561    
     17500   299.21063      71348.171      95641.628      198414.65      1091.9296    
     18000   304.20203      71271.899      95521.37       198742.35      1079.1823    
     18500   303.14874      71183.754      95241.518      198263.73      1036.8169    
     19000   297.09844      70625.319      95472.512      197300.85      884.68711    
     19500   297.76611      70780.522      94793.148      196846.81      955.26241    
     20000   302.27971      70092.163      95033.614      196872.96      789.24814    
     20500   300.10567      70408.449      94672.197      196599.5       864.67914    
     20910   298.34428      69991.519      94945.666      196271.05      764.02302    
Loop time of 301.134 on 1 procs for 10000 steps with 35235 atoms

Performance: 0.287 ns/day, 83.648 hours/ns, 33.208 timesteps/s, 1.170 Matom-step/s
100.0% CPU use with 1 MPI tasks x 1 OpenMP threads

MPI task timing breakdown:
Section |  min time  |  avg time  |  max time  |%varavg| %total
---------------------------------------------------------------
Pair    | 0.40051    | 0.40051    | 0.40051    |   0.0 |  0.13
Bond    | 159.02     | 159.02     | 159.02     |   0.0 | 52.81
Neigh   | 2.2635     | 2.2635     | 2.2635     |   0.0 |  0.75
Comm    | 1.5969     | 1.5969     | 1.5969     |   0.0 |  0.53
Output  | 0.027044   | 0.027044   | 0.027044   |   0.0 |  0.01
Modify  | 102.6      | 102.6      | 102.6      |   0.0 | 34.07
Other   |            | 35.22      |            |       | 11.70

Nlocal:          35235 ave       35235 max       35235 min
Histogram: 1 0 0 0 0 0 0 0 0 0
Nghost:          16084 ave       16084 max       16084 min
Histogram: 1 0 0 0 0 0 0 0 0 0
Neighs:              0 ave           0 max           0 min
Histogram: 1 0 0 0 0 0 0 0 0 0
FullNghs:       754246 ave      754246 max      754246 min
Histogram: 1 0 0 0 0 0 0 0 0 0

Total # of neighbors = 754246
Ave neighs/atom = 21.406159
Ave special neighs/atom = 5.7692635
Neighbor list builds = 54
Dangerous builds = 0

timestep        0.25
run             10000
Generated 0 of 36 mixed pair_coeff terms from geometric mixing rule
Per MPI rank memory allocation (min/avg/max) = 92.08 | 92.08 | 92.08 Mbytes
   Step          Temp          E_pair         E_mol          TotEng         Press     
     20910   298.34428      69991.519      94945.666      196271.05      764.02302    
     21000   299.0555       69760.771      94995.8        196165.13      613.77462    
     21500   300.36831      69978.776      94791.171      196316.39      748.51299    
     22000   301.52284      69759.615      94634.223      196061.53      700.99309    
     22500   300.81919      69767.866      94223.671      195585.33      645.29613    
     23000   300.89677      69431.788      94970.115      196003.84      574.45359    
     23500   299.74806      69745.907      94365.717      195592.92      625.22774    
     24000   300.98787      69309.322      94424.97       195345.8       635.98696    
     24500   299.52204      68713.475      94880.159      195051.2       539.30875    
     25000   301.97179      68880.779      94406.292      195001.92      576.94861    
     25500   298.2882       68759.46       94106.218      194193.65      544.24507    
     26000   301.4835       68240.902      94549.903      194454.37      394.19458    
     26500   296.90324      68271.59       94310.164      193764.27      450.10383    
     27000   302.36543      68154.757      94381.895      194292.84      425.60707    
     27500   298.81494      67947.181      94463.44       193793.92      371.82761    
     28000   300.11573      67807.916      94324.298      193652.13      390.31494    
     28500   301.37051      67855.524      94453.699      193960.92      325.06295    
     29000   297.96341      67732.807      94589.782      193616.45      316.43442    
     29500   298.89733      67174.794      95008.564      193575.31      172.84277    
     30000   299.25164      67300.92       94674.82       193404.9       197.66065    
     30500   298.99979      67526.554      94132.339      193061.6       376.80205    
     30910   298.09099      67419.172      94241.883      192968.32      308.41381    
Loop time of 303.592 on 1 procs for 10000 steps with 35235 atoms

Performance: 0.711 ns/day, 33.732 hours/ns, 32.939 timesteps/s, 1.161 Matom-step/s
100.0% CPU use with 1 MPI tasks x 1 OpenMP threads

MPI task timing breakdown:
Section |  min time  |  avg time  |  max time  |%varavg| %total
---------------------------------------------------------------
Pair    | 0.43247    | 0.43247    | 0.43247    |   0.0 |  0.14
Bond    | 161.56     | 161.56     | 161.56     |   0.0 | 53.22
Neigh   | 6.3844     | 6.3844     | 6.3844     |   0.0 |  2.10
Comm    | 2.3482     | 2.3482     | 2.3482     |   0.0 |  0.77
Output  | 0.021885   | 0.021885   | 0.021885   |   0.0 |  0.01
Modify  | 97.691     | 97.691     | 97.691     |   0.0 | 32.18
Other   |            | 35.15      |            |       | 11.58

Nlocal:          35235 ave       35235 max       35235 min
Histogram: 1 0 0 0 0 0 0 0 0 0
Nghost:          16173 ave       16173 max       16173 min
Histogram: 1 0 0 0 0 0 0 0 0 0
Neighs:              0 ave           0 max           0 min
Histogram: 1 0 0 0 0 0 0 0 0 0
FullNghs:       660806 ave      660806 max      660806 min
Histogram: 1 0 0 0 0 0 0 0 0 0

Total # of neighbors = 660806
Ave neighs/atom = 18.75425
Ave special neighs/atom = 5.7692635
Neighbor list builds = 152
Dangerous builds = 0
timestep        0.5
run             10000
Generated 0 of 36 mixed pair_coeff terms from geometric mixing rule
Per MPI rank memory allocation (min/avg/max) = 92.07 | 92.07 | 92.07 Mbytes
   Step          Temp          E_pair         E_mol          TotEng         Press     
     30910   298.09099      67419.172      94241.883      192968.32      308.41381    
     31000   301.20242      67266.298      94371.767      193272.11      309.64984    
     31500   299.74839      67190.906      94386.53       193058.77      184.35187    
     32000   300.60951      66578.045      94553.607      192703.42      98.040665    
     32500   298.78199      66629.013      94449.922      192458.77      100.43913    
     33000   298.59297      66335.165      94642.15       192337.3       62.522937    
     33500   297.96982      66475.133      94205.421      191975.09      126.59536    
     34000   297.2371       66164.873      94185.048      191567.5       75.756421    
     34500   298.61324      66395.94       94180.003      191938.06      201.70939    
     35000   299.86166      66443.417      94139.035      192075.68      117.47939    
     35500   299.39486      66303.919      94308.895      192057.02      157.69813    
     36000   302.98819      66175.679      93955.177      191952.45      200.50551    
     36500   300.13604      65816.171      94256.874      191595.09      154.44949    
     37000   301.10611      65960.766      94034.53       191619.22      159.96596    
     37500   297.58968      65650.869      94449.779      191355.26      151.75116    
     38000   297.86075      65447.206      94474.3        191204.59      82.064789    
     38500   298.36712      65518.481      94259.899      191114.64      76.767017    
     39000   300.95912      65546.496      93984.44       191139.43      87.638701    
     39500   300.92266      65456.603      94236.43       191297.69      135.86197    
     40000   299.75125      65460.075      94536.627      191478.33      87.759131    
     40500   300.57662      65142.285      94312.274      191022.88      39.159213    
     40910   298.936        65694.123      93674.88       190765.01      138.71943    
Loop time of 285.115 on 1 procs for 10000 steps with 35235 atoms

Performance: 1.515 ns/day, 15.840 hours/ns, 35.074 timesteps/s, 1.236 Matom-step/s
100.0% CPU use with 1 MPI tasks x 1 OpenMP threads

MPI task timing breakdown:
Section |  min time  |  avg time  |  max time  |%varavg| %total
---------------------------------------------------------------
Pair    | 0.43304    | 0.43304    | 0.43304    |   0.0 |  0.15
Bond    | 150.35     | 150.35     | 150.35     |   0.0 | 52.73
Neigh   | 8.9829     | 8.9829     | 8.9829     |   0.0 |  3.15
Comm    | 3.878      | 3.878      | 3.878      |   0.0 |  1.36
Output  | 0.024765   | 0.024765   | 0.024765   |   0.0 |  0.01
Modify  | 90.042     | 90.042     | 90.042     |   0.0 | 31.58
Other   |            | 31.4       |            |       | 11.01

Nlocal:          35235 ave       35235 max       35235 min
Histogram: 1 0 0 0 0 0 0 0 0 0
Nghost:          17838 ave       17838 max       17838 min
Histogram: 1 0 0 0 0 0 0 0 0 0
Neighs:              0 ave           0 max           0 min
Histogram: 1 0 0 0 0 0 0 0 0 0
FullNghs:       630086 ave      630086 max      630086 min
Histogram: 1 0 0 0 0 0 0 0 0 0

Total # of neighbors = 630086
Ave neighs/atom = 17.88239
Ave special neighs/atom = 5.7692635
Neighbor list builds = 216
Dangerous builds = 0
unfix		rNVT

velocity        all zero linear
velocity        all zero angular

compute         ZMIN all reduce min z
compute         ZMAX all reduce max z
thermo_style    custom step temp press lz pe atoms c_ZMIN c_ZMAX
run             0 post no
WARNING: No fixes with time integration, atoms won't move
For more information see https://docs.lammps.org/err0028 (src/verlet.cpp:60)
Generated 0 of 36 mixed pair_coeff terms from geometric mixing rule
Per MPI rank memory allocation (min/avg/max) = 94.77 | 94.77 | 94.77 Mbytes
   Step          Temp          Press            Lz           PotEng        Atoms        c_ZMIN         c_ZMAX    
     40910   297.86606      136.31684      320            159369             35235  -159.97184      159.9752     
Loop time of 0.00175794 on 1 procs for 0 steps with 35235 atoms

variable        DZSHIFT equal "-(c_ZMIN+c_ZMAX)/2.0"
displace_atoms  all move 0.0 0.0 $(v_DZSHIFT) units box
displace_atoms  all move 0.0 0.0 -0.0016786610620869199355 units box
Displacing atoms ...

change_box      all boundary p p f
Changing box ...
WARNING: Resetting image flags for non-periodic dimensions (src/domain.cpp:2161)
run             0 post no
WARNING: No fixes with time integration, atoms won't move
For more information see https://docs.lammps.org/err0028 (src/verlet.cpp:60)
Generated 0 of 36 mixed pair_coeff terms from geometric mixing rule
WARNING: Bond/angle/dihedral extent > half of periodic box length (src/domain.cpp:1174)
Per MPI rank memory allocation (min/avg/max) = 94.69 | 94.69 | 94.69 Mbytes
   Step          Temp          Press            Lz           PotEng        Atoms        c_ZMIN         c_ZMAX    
     40910   297.86606     -1.9414622e+13  320            4.5195363e+14      35235  -159.97352      159.97352    
WARNING: Bond/angle/dihedral extent > half of periodic box length (src/domain.cpp:1174)
Loop time of 0.000564668 on 1 procs for 0 steps with 35235 atoms


variable        ZB0 equal "c_ZMIN-5.0"
variable        ZT0 equal "c_ZMAX+5.0"
variable        ZB0F internal $(v_ZB0)
variable        ZB0F internal -164.97352212398499205
variable        ZT0F internal $(v_ZT0)
variable        ZT0F internal 164.97352212398499205
variable        z_bot equal "ramp(v_ZB0F,v_NZHALF)"
variable        z_top equal "ramp(v_ZT0F,v_ZHALF)"

fix             wall_b all wall/reflect zlo v_z_bot units box
fix             wall_t all wall/reflect zhi v_z_top units box

fix             1 all langevin 300.0 300.0 100.0 48279
fix             2 all nve

variable        film_dens equal "mass(all)/(0.6022141*lx*ly*(2.0*v_ZHALF))"

thermo          2000
thermo_style    custom step temp press lz pe atoms c_ZMIN c_ZMAX v_film_dens
dump            TRJ all custom 10000 dump.soft.lammpstrj.gz id mol type q x y z  ### FIX 11
timestep	0.5
run             ${NPUSH}
run             150000
Generated 0 of 36 mixed pair_coeff terms from geometric mixing rule
WARNING: Bond/angle/dihedral extent > half of periodic box length (src/domain.cpp:1174)
Per MPI rank memory allocation (min/avg/max) = 94.69 | 94.69 | 94.69 Mbytes
   Step          Temp          Press            Lz           PotEng        Atoms        c_ZMIN         c_ZMAX      v_film_dens  
     40910   297.86606     -1.9414622e+13  320            4.5195363e+14      35235  -159.97352      159.97352      0.71417013   
ERROR on proc 0: Bond atoms missing at step 40911
For more information see https://docs.lammps.org/err0005 (src/KOKKOS/neigh_bond_kokkos.cpp:262)
