LAMMPS (22 Jul 2025 - Update 4)
KOKKOS mode with Kokkos version 4.6.2 is enabled
  will use up to 1 GPU(s) per node
  using 1 OpenMP thread(s) per MPI task
package kokkos
package kokkos newton off
# mpirun -np 6 lmp -sf pair/gpu -pk gpu 1 newton off -in in.run_smd_G42 or mpirun -np 1 lmp_kokkos_cuda -k on g 1 -sf kk -in in.run_smd_G42

units           real
dimension       3
boundary        p p f
atom_style      full
comm_style      brick
newton          off

bond_style      class2
angle_style     class2
dihedral_style  class2
improper_style  class2

pair_style      lj/class2/coul/long 12.0
special_bonds   lj/coul 0.0 0.0 1.0
pair_modify mix sixthpower

kspace_style    pppm 1.0e-4
kspace_modify   slab 3.0

neighbor        2.0 bin
neigh_modify every 1 delay 0 check yes one 10000 page 1000000

read_data       Silico_system.data                 extra/atom/types 13                 extra/bond/types 17                 extra/angle/types 32                 extra/dihedral/types 45                 extra/improper/types 24                 extra/angle/per/atom 45                 extra/dihedral/per/atom 50                 extra/improper/per/atom 30
Reading data file ...
  orthogonal box = (0 0 -2) to (80.6296 82.864 200)
  1 by 1 by 1 MPI processor grid
  reading atoms ...
  11712 atoms
  reading velocities ...
  11712 velocities
  scanning bonds ...
  4 = max bonds/atom
  scanning angles ...
  55 = max angles/atom
  scanning dihedrals ...
  74 = max dihedrals/atom
  scanning impropers ...
  36 = max impropers/atom
  orthogonal box = (0 0 -2) to (80.6296 82.864 200)
  1 by 1 by 1 MPI processor grid
  reading bonds ...
  14944 bonds
  reading angles ...
  28880 angles
  reading dihedrals ...
  42816 dihedrals
  reading impropers ...
  14272 impropers
Finding 1-2 1-3 1-4 neighbors ...
  special bond factors lj:    0        0        1       
  special bond factors coul:  0        0        1       
     4 = max # of 1-2 neighbors
     6 = max # of 1-3 neighbors
     8 = max # of special neighbors
  special bonds CPU = 0.014 seconds
  read_data CPU = 1.257 seconds

read_data	Polymer_G42.data add append shift 0.0 0.0 65.0 offset 8 4 6 4 3
Reading data file ...
  orthogonal box = (0 0 -2) to (80.6296 82.864 200)
  1 by 1 by 1 MPI processor grid
  reading atoms ...
  38466 atoms
  reading velocities ...
  38466 velocities
  scanning bonds ...
  4 = max bonds/atom
  scanning angles ...
  18 = max angles/atom
  scanning dihedrals ...
  39 = max dihedrals/atom
  scanning impropers ...
  16 = max impropers/atom
  orthogonal box = (0 0 -2) to (80.6296 82.864 200)
  1 by 1 by 1 MPI processor grid
  reading bonds ...
  38628 bonds
  reading angles ...
  72288 angles
  reading dihedrals ...
  101682 dihedrals
  reading impropers ...
  43650 impropers
Finding 1-2 1-3 1-4 neighbors ...
  special bond factors lj:    0        0        1       
  special bond factors coul:  0        0        1       
     4 = max # of 1-2 neighbors
    12 = max # of 1-3 neighbors
    16 = max # of special neighbors
  special bonds CPU = 0.050 seconds
  read_data CPU = 15.101 seconds

molecule        water_mol water.mol
Read molecule template water_mol:
# Water molecule. Original PCFF flexible geometry
  1 molecules
  0 fragments
  0 bodies
  3 atoms with max type 6
  2 bonds with max type 4
  1 angles with max type 6
  0 dihedrals with max type 0
  0 impropers with max type 0

region          poly_zone block INF INF INF INF 25 105 units box
region          water_zone block INF INF INF INF 105 155 units box

create_atoms    7 random 2 11111 poly_zone  # Na+
Created 2 atoms
  using lattice units in orthogonal box = (0 0 -2) to (80.6296 82.864 200)
  create_atoms CPU = 0.001 seconds
create_atoms    7 random 31 11111 water_zone  # Na+
Created 31 atoms
  using lattice units in orthogonal box = (0 0 -2) to (80.6296 82.864 200)
  create_atoms CPU = 0.001 seconds
create_atoms    8 random 152 67890 poly_zone  # Cl-
Created 152 atoms
  using lattice units in orthogonal box = (0 0 -2) to (80.6296 82.864 200)
  create_atoms CPU = 0.146 seconds
create_atoms    8 random 31 67890 water_zone  # Cl-
Created 31 atoms
  using lattice units in orthogonal box = (0 0 -2) to (80.6296 82.864 200)
  create_atoms CPU = 0.001 seconds

create_atoms 0 random 6127 12345 poly_zone mol water_mol 98765 overlap 1.33
Created 18381 atoms
  using lattice units in orthogonal box = (0 0 -2) to (80.6296 82.864 200)
  create_atoms CPU = 420.448 seconds
create_atoms 0 random 11111 12345 water_zone mol water_mol 98765 overlap 1.33
Created 33333 atoms
  using lattice units in orthogonal box = (0 0 -2) to (80.6296 82.864 200)
  create_atoms CPU = 530.854 seconds

group solvent type 5 6 7 8
51930 atoms in group solvent
group ions    type 7 8
216 atoms in group ions
group water   type 5 6
51714 atoms in group water
set type 7 charge 1.0
Setting atom values ...
  33 settings made for charge
set type 8 charge -1.0
Setting atom values ...
  183 settings made for charge


write_data      system_check_G42.data
System init for write_data ...
PPPM Kokkos initialization ...
WARNING: System is not charge neutral, net charge = -114
For more information see https://docs.lammps.org/err0029 (src/kspace.cpp:330)
  using 12-bit tables for long-range coulomb
  G vector (1/distance) = 0.20843655
  grid = 32 32 160
  stencil order = 5
  estimated absolute RMS force accuracy = 0.037316116
  estimated relative force accuracy = 0.00011237638
  using double precision cuFFT
  3d grid and FFT values/proc = 221778 163840
Generated 210 of 210 mixed pair_coeff terms from sixthpower/sixthpower mixing rule
Neighbor list info ...
  update: every = 1 steps, delay = 0 steps, check = yes
  max neighbors/atom: 10000, page size: 1000000
  master list distance cutoff = 14
  ghost atom cutoff = 14
  binsize = 14, bins = 6 6 15
  1 neighbor lists, perpetual/occasional/extra = 1 0 0
  (1) pair lj/class2/coul/long/kk, perpetual
      attributes: full, newton off, kokkos_device
      pair build: full/bin/kk/device
      stencil: full/bin/3d
      bin: kk/device

region          lower block INF INF INF INF -2 10 units box
group           lower region lower
4697 atoms in group lower
fix             FREEZE lower setforce 0.0 0.0 0.0
velocity        lower set 0.0 0.0 0.0
group           mobile subtract all lower
97411 atoms in group mobile
group           substrate_atoms subtract mobile solvent
45481 atoms in group substrate_atoms
group           excluded_types type 1 2 3 4 5 6 7 8
63642 atoms in group excluded_types
group		polymer subtract all excluded_types
38466 atoms in group polymer
region          pull_zone block INF INF INF INF 65.0 165.0 units box
group           atoms_in_zone region pull_zone
61739 atoms in group atoms_in_zone
group           pull_layer intersect polymer atoms_in_zone
18748 atoms in group pull_layer

# Simulation ------------------------------------------------------------

dump            1 all custom 20000 trajectory_stabilization_G42.lammpstrj.gz id type xu yu zu

thermo		150
thermo_style custom step temp ebond eangle edihed eimp pe press

fix WALL_TOP solvent wall/harmonic zhi 157.0 10.0 0.0 2.0

min_modify dmax 0.1
min_style cg/kk
minimize 1.0e-4 1.0e-5 5000 50000
PPPM Kokkos initialization ...
  using 12-bit tables for long-range coulomb
  G vector (1/distance) = 0.20843655
  grid = 32 32 160
  stencil order = 5
  estimated absolute RMS force accuracy = 0.037316116
  estimated relative force accuracy = 0.00011237638
  using double precision cuFFT
  3d grid and FFT values/proc = 221778 163840
Generated 210 of 210 mixed pair_coeff terms from sixthpower/sixthpower mixing rule
WARNING: Fix MINIMIZE/kk not compatible with sending data in Kokkos communication (src/KOKKOS/comm_kokkos.cpp:799)
WARNING: Fix with atom-based arrays not compatible with sending data in Kokkos communication, switching to classic exchange/border communication (src/KOKKOS/comm_kokkos.cpp:812)
WARNING: Fix MINIMIZE/kk not compatible with Kokkos sorting on device (src/KOKKOS/atom_kokkos.cpp:213)
WARNING: Fix with atom-based arrays not compatible with Kokkos sorting on device, switching to classic host sorting (src/KOKKOS/atom_kokkos.cpp:219)
WARNING: Inconsistent image flags
For more information see https://docs.lammps.org/err0027 (src/domain.cpp:1052)
Per MPI rank memory allocation (min/avg/max) = 670.5 | 670.5 | 670.5 Mbytes
   Step          Temp          E_bond        E_angle        E_dihed        E_impro         PotEng         Press     
         0   134.01548      92845.242      100913.16     -6906.8644      820.43548      4.1624836e+10  6.3452136e+09
       150   134.01548      39236.603      69563.935     -14288.648      640.14443     -1156339.6      6387.455     
       228   134.01548      37291.488      64512.39      -14960.344      490.34919     -1209041.7      3177.0103    
Loop time of 92.9621 on 1 procs for 228 steps with 102108 atoms

83.8% CPU use with 1 MPI tasks x 1 OpenMP threads

Minimization stats:
  Stopping criterion = energy tolerance
  Energy initial, next-to-last, final = 
      41624835687.0569  -1208955.44428028  -1209041.65272572
  Force two-norm initial, final = 1.6360716e+12 572.94004
  Force max component initial, final = 7.8454749e+11 204.33396
  Final line search alpha, max atom move = 0.00081325991 0.16617662
  Iterations, force evaluations = 228 246

MPI task timing breakdown:
Section |  min time  |  avg time  |  max time  |%varavg| %total
---------------------------------------------------------------
Pair    | 65.89      | 65.89      | 65.89      |   0.0 | 70.88
Bond    | 4.7501     | 4.7501     | 4.7501     |   0.0 |  5.11
Kspace  | 13.295     | 13.295     | 13.295     |   0.0 | 14.30
Neigh   | 3.6569     | 3.6569     | 3.6569     |   0.0 |  3.93
Comm    | 0.19709    | 0.19709    | 0.19709    |   0.0 |  0.21
Output  | 0.0045498  | 0.0045498  | 0.0045498  |   0.0 |  0.00
Modify  | 1.7666     | 1.7666     | 1.7666     |   0.0 |  1.90
Other   |            | 3.402      |            |       |  3.66

Nlocal:         102108 ave      102108 max      102108 min
Histogram: 1 0 0 0 0 0 0 0 0 0
Nghost:          82055 ave       82055 max       82055 min
Histogram: 1 0 0 0 0 0 0 0 0 0
Neighs:              0 ave           0 max           0 min
Histogram: 1 0 0 0 0 0 0 0 0 0
FullNghs:  1.13799e+08 ave 1.13799e+08 max 1.13799e+08 min
Histogram: 1 0 0 0 0 0 0 0 0 0

Total # of neighbors = 1.1379872e+08
Ave neighs/atom = 1114.4937
Ave special neighs/atom = 4.0438359
Neighbor list builds = 9
Dangerous builds = 0
min_style cg/kk
minimize 1.0e-8 1.0e-10 20000 200000
PPPM Kokkos initialization ...
  using 12-bit tables for long-range coulomb
  G vector (1/distance) = 0.20843655
  grid = 32 32 160
  stencil order = 5
  estimated absolute RMS force accuracy = 0.037316116
  estimated relative force accuracy = 0.00011237638
  using double precision cuFFT
  3d grid and FFT values/proc = 221778 163840
Generated 210 of 210 mixed pair_coeff terms from sixthpower/sixthpower mixing rule
WARNING: Fix MINIMIZE/kk not compatible with Kokkos sorting on device (src/KOKKOS/atom_kokkos.cpp:213)
WARNING: Fix with atom-based arrays not compatible with Kokkos sorting on device, switching to classic host sorting (src/KOKKOS/atom_kokkos.cpp:219)
WARNING: Inconsistent image flags
For more information see https://docs.lammps.org/err0027 (src/domain.cpp:1052)
Per MPI rank memory allocation (min/avg/max) = 681.2 | 681.2 | 681.2 Mbytes
   Step          Temp          E_bond        E_angle        E_dihed        E_impro         PotEng         Press     
       228   134.01548      37291.488      64512.39      -14960.344      490.34919     -1209041.7      3177.0103    
       300   134.01548      36752.628      62634.955     -15335.126      419.61335     -1228781.6      2330.9368    
       450   134.01548      36292.08       60951.557     -16028.804      336.34171     -1251006.5      1747.3342    
       600   134.01548      36264.421      60281.746     -16512.168      279.65531     -1262471.8      1583.8553    
       750   134.01548      36210.019      60138.423     -16729.934      264.56885     -1266382.1      1503.5708    
       900   134.01548      36234.619      60095.506     -16800.843      260.10472     -1267609.1      1476.5406    
      1050   134.01548      36265.912      60018.027     -16880.475      253.90758     -1269293        1469.3242    
      1200   134.01548      36281.214      59990.796     -16949.736      249.49139     -1270477.3      1450.7116    
      1350   134.01548      36291.438      59954.061     -16991.649      245.5058      -1271351.3      1420.6838    
      1500   134.01548      36321.191      59932.114     -17050.637      242.05754     -1272347.8      1408.2274    
      1650   134.01548      36323.627      59895.517     -17096.269      240.58795     -1272925.1      1392.2633    
      1800   134.01548      36366.445      59841.029     -17144.445      234.04978     -1274155.9      1420.5991    
      1950   134.01548      36326.964      59764.736     -17248.827      230.44274     -1275413.1      1378.4774    
      2100   134.01548      36338.87       59733.867     -17303.425      227.88149     -1276145        1339.9168    
      2250   134.01548      36365.301      59723.52      -17338.852      226.08041     -1276636.6      1319.6634    
      2400   134.01548      36353.033      59696.161     -17392.724      223.88896     -1277053.4      1310.8353    
      2550   134.01548      36373.072      59666.886     -17405.155      221.47364     -1277408.5      1331.1637    
      2700   134.01548      36370.859      59649.427     -17470.241      219.21104     -1277737.1      1328.385     
      2850   134.01548      36372.759      59642.653     -17509.535      217.56221     -1278061        1342.4782    
      3000   134.01548      36369.639      59615.072     -17512.297      216.91202     -1278290.8      1333.9598    
      3150   134.01548      36375.648      59614.054     -17535.74       216.20771     -1278470.5      1328.5348    
      3300   134.01548      36370.399      59600.152     -17544.652      215.30344     -1278584.9      1327.6922    
      3450   134.01548      36368.824      59592.571     -17559.701      214.66867     -1278679.4      1321.0216    
      3600   134.01548      36367.032      59583.441     -17570.868      213.93654     -1278758.6      1321.0754    
      3750   134.01548      36372.866      59587.653     -17569.911      213.98357     -1278840.1      1322.4984    
      3900   134.01548      36373.088      59580.106     -17578.037      214.07439     -1278909.8      1316.3385    
      3918   134.01548      36374.321      59579.635     -17578.069      213.88117     -1278914.1      1315.2174    
Loop time of 3377.8 on 1 procs for 3690 steps with 102108 atoms

85.5% CPU use with 1 MPI tasks x 1 OpenMP threads

Minimization stats:
  Stopping criterion = linesearch alpha is zero
  Energy initial, next-to-last, final = 
      -1209041.6527257  -1278914.14425654  -1278914.14425654
  Force two-norm initial, final = 572.94004 23.815795
  Force max component initial, final = 204.33396 8.5375625
  Final line search alpha, max atom move = 1.7678017e-11 1.5092718e-10
  Iterations, force evaluations = 3690 7244

MPI task timing breakdown:
Section |  min time  |  avg time  |  max time  |%varavg| %total
---------------------------------------------------------------
Pair    | 2618.8     | 2618.8     | 2618.8     |   0.0 | 77.53
Bond    | 149.78     | 149.78     | 149.78     |   0.0 |  4.43
Kspace  | 428.17     | 428.17     | 428.17     |   0.0 | 12.68
Neigh   | 55.855     | 55.855     | 55.855     |   0.0 |  1.65
Comm    | 3.8013     | 3.8013     | 3.8013     |   0.0 |  0.11
Output  | 0.091417   | 0.091417   | 0.091417   |   0.0 |  0.00
Modify  | 56.025     | 56.025     | 56.025     |   0.0 |  1.66
Other   |            | 65.27      |            |       |  1.93

Nlocal:         102108 ave      102108 max      102108 min
Histogram: 1 0 0 0 0 0 0 0 0 0
Nghost:          81887 ave       81887 max       81887 min
Histogram: 1 0 0 0 0 0 0 0 0 0
Neighs:              0 ave           0 max           0 min
Histogram: 1 0 0 0 0 0 0 0 0 0
FullNghs:   1.1353e+08 ave  1.1353e+08 max  1.1353e+08 min
Histogram: 1 0 0 0 0 0 0 0 0 0

Total # of neighbors = 1.1352967e+08
Ave neighs/atom = 1111.8587
Ave special neighs/atom = 4.0438359
Neighbor list builds = 117
Dangerous builds = 0
set group mobile image 0 0 0
Setting atom values ...
  97411 settings made for image

timestep        0.1
fix             1 mobile nve/limit 0.05
fix             2 mobile viscous 50.0
fix             3 all dt/reset 1 NULL 0.001 0.1
thermo          1000
run             10000
PPPM Kokkos initialization ...
  using 12-bit tables for long-range coulomb
  G vector (1/distance) = 0.20843655
  grid = 32 32 160
  stencil order = 5
  estimated absolute RMS force accuracy = 0.037316116
  estimated relative force accuracy = 0.00011237638
  using double precision cuFFT
  3d grid and FFT values/proc = 221778 163840
Generated 210 of 210 mixed pair_coeff terms from sixthpower/sixthpower mixing rule
WARNING: Inconsistent image flags
For more information see https://docs.lammps.org/err0027 (src/domain.cpp:1052)
Per MPI rank memory allocation (min/avg/max) = 668.5 | 668.5 | 668.5 Mbytes
   Step          Temp          E_bond        E_angle        E_dihed        E_impro         PotEng         Press     
      3918   134.01548      36374.321      59579.635     -17578.069      213.88117     -1278914.1      1315.2174    
      4000   133.71671      36389.481      59585.555     -17578.288      214.0427      -1278893.3      1310.492     
      5000   120.41779      38728.947      60376.944     -17542.026      227.63667     -1275643.6      1251.0737    
      6000   98.092521      42709.062      62280.403     -17445.914      262.21563     -1269455.7      1081.9482    
      7000   80.876243      44596.052      64804.951     -17315.564      316.1223      -1264636.3      668.24453    
      8000   73.27982       43585.062      67342.616     -17175.909      386.12741     -1262671        102.14667    
      9000   69.175898      42058.363      69337.641     -17044.434      467.10534     -1261778.3     -304.15207    
     10000   62.145138      42375.404      70427.733     -16933.317      552.14878     -1259992.3     -279.48774    
     11000   52.486346      44637.874      70512.65      -16853.1        633.17846     -1257348        161.60696    
     12000   46.944932      46679.454      69752.417     -16811.489      701.85098     -1255885.5      714.39922    
     13000   52.064808      46080.637      68504.343     -16807.618      750.64255     -1257674        1025.9189    
     13918   64.00573       43355.893      67305.353     -16826.169      773.16769     -1261619.3      988.54572    
Loop time of 3030.73 on 1 procs for 10000 steps with 102108 atoms

Performance: 0.000 ns/day, 84186.934 hours/ns, 3.300 timesteps/s, 336.909 katom-step/s
89.1% CPU use with 1 MPI tasks x 1 OpenMP threads

MPI task timing breakdown:
Section |  min time  |  avg time  |  max time  |%varavg| %total
---------------------------------------------------------------
Pair    | 30.943     | 30.943     | 30.943     |   0.0 |  1.02
Bond    | 2453       | 2453       | 2453       |   0.0 | 80.94
Kspace  | 367.85     | 367.85     | 367.85     |   0.0 | 12.14
Neigh   | 0          | 0          | 0          |   0.0 |  0.00
Comm    | 0.30273    | 0.30273    | 0.30273    |   0.0 |  0.01
Output  | 0.017342   | 0.017342   | 0.017342   |   0.0 |  0.00
Modify  | 159.77     | 159.77     | 159.77     |   0.0 |  5.27
Other   |            | 18.84      |            |       |  0.62

Nlocal:         102108 ave      102108 max      102108 min
Histogram: 1 0 0 0 0 0 0 0 0 0
Nghost:          81885 ave       81885 max       81885 min
Histogram: 1 0 0 0 0 0 0 0 0 0
Neighs:              0 ave           0 max           0 min
Histogram: 1 0 0 0 0 0 0 0 0 0
FullNghs:   1.1353e+08 ave  1.1353e+08 max  1.1353e+08 min
Histogram: 1 0 0 0 0 0 0 0 0 0

Total # of neighbors = 1.1352951e+08
Ave neighs/atom = 1111.8572
Ave special neighs/atom = 4.0438359
Neighbor list builds = 0
Dangerous builds = 0
# fix_modify      1 energy yes
unfix           1
unfix           2
unfix           3

velocity        mobile zero linear
velocity        mobile zero angular

velocity        mobile create 10 12345 mom yes rot yes dist gaussian

timestep        0.1
fix             rNVT mobile nvt temp 10.0 10.0 50.0
thermo          500
run             10000
PPPM Kokkos initialization ...
  using 12-bit tables for long-range coulomb
  G vector (1/distance) = 0.20843655
  grid = 32 32 160
  stencil order = 5
  estimated absolute RMS force accuracy = 0.037316116
  estimated relative force accuracy = 0.00011237638
  using double precision cuFFT
  3d grid and FFT values/proc = 221778 163840
Generated 210 of 210 mixed pair_coeff terms from sixthpower/sixthpower mixing rule
WARNING: Inconsistent image flags
For more information see https://docs.lammps.org/err0027 (src/domain.cpp:1052)
Per MPI rank memory allocation (min/avg/max) = 668.5 | 668.5 | 668.5 Mbytes
   Step          Temp          E_bond        E_angle        E_dihed        E_impro         PotEng         Press     
     13918   9.5399924      43355.893      67305.353     -16826.169      773.16769     -1261619.3      427.06572    
     14000   49.61128       37640.471      61954.5       -17321.606      307.58353     -1274001.4      36.536507    
     14500   29.279122      39673.293      63297.369     -17245          465.84037     -1270341.2      442.35312    
     15000   22.996897      39681.76       63088.867     -17316.554      428.88471     -1270785       -276.07289    
     15500   21.969188      39018.282      62310.472     -17320.669      367.26943     -1272507.8     -136.939      
     16000   18.81985       38590.437      62028.909     -17328.554      356.33048     -1273245        23.726124    
     16500   16.306261      38392.729      61736.391     -17394.331      327.04921     -1273878       -138.26099    
     17000   14.715405      38031.472      61459.971     -17379.619      317.94135     -1274528.4      92.268817    
     17500   13.164004      37825.751      61319.988     -17446.303      303.3801      -1274976.9     -31.839271    
     18000   11.825113      37727.347      61219.856     -17447.046      294.51727     -1275310.6     -58.057028    
     18500   11.004007      37618.941      61025.767     -17448.164      291.06432     -1275649.9      77.327688    
     19000   10.209696      37655.727      60868.162     -17451.193      286.66303     -1275865.8     -115.4641     
     19500   9.5417542      37581.392      60824.81      -17484.84       290.10833     -1275994.7     -50.990186    
     20000   9.3499261      37554.217      60675.209     -17449.867      282.78368     -1276145        6.608626     
     20500   9.341512       37415.069      60780.62      -17479.638      274.17654     -1276208.7     -94.847533    
     21000   9.4153741      37507.586      60744.554     -17509.559      279.70545     -1276148.8      19.507085    
     21500   9.768005       37427.527      60835.247     -17458.142      277.43569     -1276119.8     -50.857216    
     22000   9.6962467      37504.879      60848.757     -17485.645      281.63157     -1276034       -52.772603    
     22500   9.6172397      37511.235      60804.19      -17461.14       282.92909     -1276068       -46.894597    
     23000   9.4734166      37397.625      60805.801     -17454.7        274.11977     -1276145.8     -56.238003    
     23500   9.3009846      37394.768      60799.53      -17474.833      282.00885     -1276167.2     -55.325541    
     23918   9.4381466      37390.505      60784.96      -17502.882      277.9352      -1276201.4     -83.594382    
Loop time of 3021.51 on 1 procs for 10000 steps with 102108 atoms

Performance: 0.029 ns/day, 839.308 hours/ns, 3.310 timesteps/s, 337.937 katom-step/s
89.0% CPU use with 1 MPI tasks x 1 OpenMP threads

MPI task timing breakdown:
Section |  min time  |  avg time  |  max time  |%varavg| %total
---------------------------------------------------------------
Pair    | 34.612     | 34.612     | 34.612     |   0.0 |  1.15
Bond    | 2334.9     | 2334.9     | 2334.9     |   0.0 | 77.28
Kspace  | 407.16     | 407.16     | 407.16     |   0.0 | 13.48
Neigh   | 2.6973     | 2.6973     | 2.6973     |   0.0 |  0.09
Comm    | 3.5448     | 3.5448     | 3.5448     |   0.0 |  0.12
Output  | 1.0678     | 1.0678     | 1.0678     |   0.0 |  0.04
Modify  | 200.49     | 200.49     | 200.49     |   0.0 |  6.64
Other   |            | 37.02      |            |       |  1.23

Nlocal:         102108 ave      102108 max      102108 min
Histogram: 1 0 0 0 0 0 0 0 0 0
Nghost:          81907 ave       81907 max       81907 min
Histogram: 1 0 0 0 0 0 0 0 0 0
Neighs:              0 ave           0 max           0 min
Histogram: 1 0 0 0 0 0 0 0 0 0
FullNghs:  1.13528e+08 ave 1.13528e+08 max 1.13528e+08 min
Histogram: 1 0 0 0 0 0 0 0 0 0

Total # of neighbors = 1.1352846e+08
Ave neighs/atom = 1111.8468
Ave special neighs/atom = 4.0438359
Neighbor list builds = 8
Dangerous builds = 0

timestep        0.25
run             10000
PPPM Kokkos initialization ...
  using 12-bit tables for long-range coulomb
  G vector (1/distance) = 0.20843655
  grid = 32 32 160
  stencil order = 5
  estimated absolute RMS force accuracy = 0.037316116
  estimated relative force accuracy = 0.00011237638
  using double precision cuFFT
  3d grid and FFT values/proc = 221778 163840
Generated 210 of 210 mixed pair_coeff terms from sixthpower/sixthpower mixing rule
WARNING: Inconsistent image flags
For more information see https://docs.lammps.org/err0027 (src/domain.cpp:1052)
Per MPI rank memory allocation (min/avg/max) = 668.5 | 668.5 | 668.5 Mbytes
   Step          Temp          E_bond        E_angle        E_dihed        E_impro         PotEng         Press     
     23918   9.4381466      37390.505      60784.96      -17502.882      277.9352      -1276201.4     -83.594382    
     24000   9.5018914      37341.046      60794.476     -17485.288      273.43695     -1276195.6     -29.356533    
     24500   9.6263874      37490.592      60787.642     -17498.719      271.50845     -1276119.5     -42.325537    
     25000   9.4013231      37433.28       60719.235     -17462.365      274.67241     -1276230.1     -89.754526    
     25500   9.6567951      37506.404      60752.88      -17499.266      278.34304     -1276207.2     -33.592353    
     26000   9.4927481      37359.812      60782.88      -17501.974      269.91586     -1276228.9     -37.707137    
     26500   9.480888       37360.039      60777.636     -17490.951      272.08671     -1276279.2     -47.047703    
     27000   9.5895064      37501.071      60751.64      -17530.607      274.42241     -1276261.5      2.3685071    
     27500   9.4869495      37342.269      60682.932     -17508.988      275.6864      -1276343.2     -57.452181    
     28000   9.6215627      37325.156      60733.217     -17494.731      268.73268     -1276335.2     -67.965591    
     28500   9.5519316      37354.149      60725.908     -17500.092      272.51346     -1276386.5     -70.337413    
     29000   9.4643011      37366.28       60702.657     -17512.347      269.77511     -1276392.5     -41.992751    
     29500   9.5473465      37366.488      60688.712     -17521.396      275.10326     -1276393.6     -10.537148    
     30000   9.4821336      37284.288      60755.089     -17514.009      271.77923     -1276475.2     -19.975091    
     30500   9.5766441      37342.058      60701.003     -17520.193      273.18318     -1276486.8     -37.733299    
     31000   9.4849887      37364.839      60664.93      -17527.357      268.29148     -1276510.2     -71.091254    
     31500   9.5517281      37337.631      60673.823     -17529.588      268.31293     -1276560.9     -60.190529    
     32000   9.5761055      37287.053      60627.518     -17478.029      262.50927     -1276598.2     -74.291766    
     32500   9.5071113      37292.31       60695.068     -17562.899      265.05735     -1276632.8     -72.164076    
     33000   9.524218       37290.175      60703.416     -17523.653      268.26446     -1276642.7     -29.210297    
     33500   9.5351012      37347.752      60688.592     -17538.783      269.439       -1276666.8     -31.942472    
     33918   9.583902       37274.086      60615.087     -17527.541      265.59029     -1276729.9     -59.076845    
Loop time of 3017.23 on 1 procs for 10000 steps with 102108 atoms

Performance: 0.072 ns/day, 335.247 hours/ns, 3.314 timesteps/s, 338.417 katom-step/s
91.2% CPU use with 1 MPI tasks x 1 OpenMP threads

MPI task timing breakdown:
Section |  min time  |  avg time  |  max time  |%varavg| %total
---------------------------------------------------------------
Pair    | 32.295     | 32.295     | 32.295     |   0.0 |  1.07
Bond    | 2337.1     | 2337.1     | 2337.1     |   0.0 | 77.46
Kspace  | 411.11     | 411.11     | 411.11     |   0.0 | 13.63
Neigh   | 10.144     | 10.144     | 10.144     |   0.0 |  0.34
Comm    | 4.7773     | 4.7773     | 4.7773     |   0.0 |  0.16
Output  | 0.044872   | 0.044872   | 0.044872   |   0.0 |  0.00
Modify  | 187.55     | 187.55     | 187.55     |   0.0 |  6.22
Other   |            | 34.2       |            |       |  1.13

Nlocal:         102108 ave      102108 max      102108 min
Histogram: 1 0 0 0 0 0 0 0 0 0
Nghost:          81970 ave       81970 max       81970 min
Histogram: 1 0 0 0 0 0 0 0 0 0
Neighs:              0 ave           0 max           0 min
Histogram: 1 0 0 0 0 0 0 0 0 0
FullNghs:  1.13518e+08 ave 1.13518e+08 max 1.13518e+08 min
Histogram: 1 0 0 0 0 0 0 0 0 0

Total # of neighbors = 1.1351766e+08
Ave neighs/atom = 1111.7411
Ave special neighs/atom = 4.0438359
Neighbor list builds = 27
Dangerous builds = 0
timestep        0.5
run             10000
PPPM Kokkos initialization ...
  using 12-bit tables for long-range coulomb
  G vector (1/distance) = 0.20843655
  grid = 32 32 160
  stencil order = 5
  estimated absolute RMS force accuracy = 0.037316116
  estimated relative force accuracy = 0.00011237638
  using double precision cuFFT
  3d grid and FFT values/proc = 221778 163840
Generated 210 of 210 mixed pair_coeff terms from sixthpower/sixthpower mixing rule
WARNING: Inconsistent image flags
For more information see https://docs.lammps.org/err0027 (src/domain.cpp:1052)
Per MPI rank memory allocation (min/avg/max) = 668.5 | 668.5 | 668.5 Mbytes
   Step          Temp          E_bond        E_angle        E_dihed        E_impro         PotEng         Press     
     33918   9.583902       37274.086      60615.087     -17527.541      265.59029     -1276729.9     -59.076845    
     34000   9.5135138      37268.281      60644.671     -17498.685      266.66599     -1276723       -54.134527    
     34500   9.5283189      37302.91       60648.108     -17561.962      266.5315      -1276784.6     -30.643219    
     35000   9.4894426      37317.1        60599.866     -17568.55       265.87782     -1276853.3     -40.83601     
     35500   9.5573703      37229.516      60566.173     -17549.802      264.93669     -1276930.1     -11.402765    
     36000   9.4621708      37291.547      60584.055     -17555.619      266.87001     -1276955.9      8.4028287    
     36500   9.5074855      37217.169      60590.613     -17564.842      262.46336     -1277040.5     -1.1560203    
     37000   9.5160778      37267.394      60597.723     -17542.157      259.62019     -1277073.6     -26.503926    
     37500   9.5414724      37276.836      60555.453     -17540.983      255.5948      -1277121.3     -18.790566    
     38000   9.5186829      37231.248      60533.538     -17570.102      260.11235     -1277185       -39.103871    
     38500   9.5320522      37154.232      60513.144     -17556.877      256.15909     -1277260.5     -36.366069    
     39000   9.4562236      37197.66       60533.487     -17597.449      257.81751     -1277315.8     -54.347212    
     39500   9.5163543      37168.561      60467.788     -17598.332      257.57575     -1277368.3     -33.97633     
     40000   9.5836662      37159.067      60527.611     -17612.333      253.45145     -1277408.2      1.3238399    
     40500   9.5846658      37161.017      60552.963     -17582.69       254.54363     -1277438.7      3.44217      
     41000   9.5459756      37130.556      60508.336     -17575.089      249.86387     -1277491.9     -34.063402    
     41500   9.5609629      37174.9        60485.398     -17581.207      249.99431     -1277560.4     -76.863358    
     42000   9.5186053      37132.608      60478.526     -17588.62       250.53097     -1277590.6     -42.630875    
     42500   9.503205       37146.67       60486.88      -17611.29       252.09255     -1277611.2     -19.508124    
     43000   9.5723975      37150.051      60446.977     -17613.569      249.44654     -1277698.5     -30.423422    
     43500   9.5441657      37089.978      60436.264     -17607.164      250.9556      -1277747.5     -47.593495    
     43918   9.4740968      37065.465      60479.888     -17571.789      250.72425     -1277771       -63.777618    
Loop time of 3018.25 on 1 procs for 10000 steps with 102108 atoms

Performance: 0.143 ns/day, 167.680 hours/ns, 3.313 timesteps/s, 338.302 katom-step/s
94.6% CPU use with 1 MPI tasks x 1 OpenMP threads

MPI task timing breakdown:
Section |  min time  |  avg time  |  max time  |%varavg| %total
---------------------------------------------------------------
Pair    | 30.178     | 30.178     | 30.178     |   0.0 |  1.00
Bond    | 2348.3     | 2348.3     | 2348.3     |   0.0 | 77.80
Kspace  | 403.72     | 403.72     | 403.72     |   0.0 | 13.38
Neigh   | 24.883     | 24.883     | 24.883     |   0.0 |  0.82
Comm    | 5.1301     | 5.1301     | 5.1301     |   0.0 |  0.17
Output  | 1.0378     | 1.0378     | 1.0378     |   0.0 |  0.03
Modify  | 174.05     | 174.05     | 174.05     |   0.0 |  5.77
Other   |            | 30.9       |            |       |  1.02

Nlocal:         102108 ave      102108 max      102108 min
Histogram: 1 0 0 0 0 0 0 0 0 0
Nghost:          81948 ave       81948 max       81948 min
Histogram: 1 0 0 0 0 0 0 0 0 0
Neighs:              0 ave           0 max           0 min
Histogram: 1 0 0 0 0 0 0 0 0 0
FullNghs:  1.13513e+08 ave 1.13513e+08 max 1.13513e+08 min
Histogram: 1 0 0 0 0 0 0 0 0 0

Total # of neighbors = 1.1351297e+08
Ave neighs/atom = 1111.6952
Ave special neighs/atom = 4.0438359
Neighbor list builds = 64
Dangerous builds = 0

fix PRESS pull_layer spring tether 15 NULL NULL 0 40
timestep        0.5
run             30000
PPPM Kokkos initialization ...
  using 12-bit tables for long-range coulomb
  G vector (1/distance) = 0.20843655
  grid = 32 32 160
  stencil order = 5
  estimated absolute RMS force accuracy = 0.037316116
  estimated relative force accuracy = 0.00011237638
  using double precision cuFFT
  3d grid and FFT values/proc = 221778 163840
Generated 210 of 210 mixed pair_coeff terms from sixthpower/sixthpower mixing rule
WARNING: Inconsistent image flags
For more information see https://docs.lammps.org/err0027 (src/domain.cpp:1052)
Per MPI rank memory allocation (min/avg/max) = 668.5 | 668.5 | 668.5 Mbytes
   Step          Temp          E_bond        E_angle        E_dihed        E_impro         PotEng         Press     
     43918   9.4740968      37065.465      60479.888     -17571.789      250.72425     -1277771       -63.777618    
     44000   9.5225723      37127.47       60438.419     -17579.638      251.58175     -1277795.2     -36.988503    
     44500   9.4659341      37124.108      60452.986     -17613.122      248.62761     -1277841.4     -18.720659    
     45000   9.5401615      37084.258      60402.172     -17621.491      247.88511     -1277950.2     -13.596996    
     45500   9.5813766      37017.453      60366.128     -17608.086      241.29489     -1278029.2     -27.675163    
     46000   9.5350643      36972.375      60302.332     -17607.616      246.46071     -1278108       -15.248553    
     46500   9.5249084      37033.493      60288.178     -17608.614      240.66981     -1278152.9      20.432046    
     47000   9.5611762      36942.218      60312.612     -17620.436      240.70441     -1278193       -10.453198    
     47500   9.5564674      36956.752      60309.818     -17618.05       242.81        -1278198.1      49.992653    
     48000   9.4889686      37077.905      60313.773     -17660.968      240.79787     -1278183.5      95.867867    
     48500   9.5483218      37113.564      60351.401     -17612.402      240.92371     -1278126.3      109.53561    
     49000   9.5330136      37121.073      60374.686     -17606.434      235.5094      -1278083.3      164.7548     
     49500   9.532608       37180.307      60387.63      -17611.46       238.24372     -1278004        183.67546    
     50000   9.5508701      37200.866      60467.535     -17594.949      233.61697     -1277886.3      239.1623     
     50500   9.4881426      37209.778      60441.446     -17606.614      236.96758     -1277806.6      327.63235    
     51000   9.5464214      37274.876      60497.699     -17577.623      236.82722     -1277622.8      377.12538    
     51500   9.5203319      37345.486      60488.914     -17567.603      239.36238     -1277521.1      440.783      
     52000   9.5995116      37177.987      60488.413     -17541.917      235.79632     -1277390.8      451.31034    
     52500   9.647799       37171.365      60460.136     -17586.903      238.49728     -1277311.3      533.98167    
     53000   9.5337837      37285.753      60499.502     -17578.654      238.99839     -1277307.8      476.01775    
     53500   9.544069       37205.336      60491.552     -17567.736      237.16286     -1277277.8      497.26111    
     54000   9.531748       37191.835      60419.445     -17571.303      236.26962     -1277394.1      509.5215     
     54500   9.6050063      37172.705      60488.932     -17578.241      235.92478     -1277480.9      466.22394    
     55000   9.5339133      37131.776      60492.786     -17562.921      234.27522     -1277647.8      518.37706    
     55500   9.5184083      37208.239      60476.495     -17602.451      237.23117     -1277791.7      512.83893    
     56000   9.6174747      37171.12       60399.422     -17590.05       235.66229     -1277920.1      480.59871    
     56500   9.6059708      37085.532      60456.138     -17593.75       234.14655     -1278098.7      488.59498    
     57000   9.5330219      37115.147      60390.583     -17606.609      238.23363     -1278295.2      430.12042    
     57500   9.504627       37031.786      60365.339     -17620.718      232.33299     -1278480.5      412.88034    
     58000   9.5096432      37088.98       60285.583     -17616.506      229.37311     -1278590.2      394.39755    
     58500   9.5013809      36972.374      60333.727     -17599.713      229.39558     -1278741.3      279.03224    
     59000   9.4602139      36972.853      60278.126     -17632.999      232.51667     -1278897.6      278.34546    
     59500   9.55043        36995.43       60315.77      -17653.36       232.26914     -1279005        330.09092    
     60000   9.6028118      37000.625      60207.864     -17660.585      230.86011     -1279069.3      274.27168    
     60500   9.615316       36965.104      60266.513     -17676.831      235.15311     -1279170.4      186.84424    
     61000   9.6187993      36929.035      60297.466     -17677.04       229.33469     -1279223.9      247.61255    
     61500   9.4990497      36978.935      60286.812     -17693.866      229.85334     -1279319.2      203.03611    
     62000   9.5349191      36963.909      60276.972     -17697.062      230.01155     -1279342.5      183.30113    
     62500   9.6135279      36942.064      60241.171     -17695.157      229.41213     -1279400.5      212.97575    
     63000   9.5789158      36933.958      60248.014     -17707.644      227.17543     -1279446.2      229.55433    
     63500   9.5573671      36921.524      60212.907     -17743.789      229.11297     -1279515.5      174.94767    
     64000   9.5907322      36925.489      60237.025     -17750.361      229.51144     -1279559.1      214.96836    
     64500   9.5598444      36941.045      60235.301     -17747.481      227.00223     -1279559.3      211.11485    
     65000   9.5806722      36870.408      60220.106     -17750.069      227.08465     -1279601.8      175.79541    
     65500   9.5711426      36886.538      60200.519     -17754.557      228.05361     -1279619.5      194.93324    
     66000   9.4864862      36908.296      60239.013     -17746.894      225.31311     -1279666.1      180.98124    
     66500   9.6290065      36922.781      60231.861     -17754.498      230.04743     -1279612.8      232.59826    
     67000   9.6085836      36829.487      60276.151     -17749.939      227.03856     -1279600.5      166.5067     
     67500   9.5211247      36952.449      60178.425     -17719.871      229.57984     -1279604.8      240.81078    
     68000   9.5164035      37001.989      60182.231     -17747.534      223.992       -1279578.5      257.05454    
     68500   9.5013204      36932.642      60255.775     -17749.964      228.94616     -1279517        306.89971    
     69000   9.5140344      36994.415      60304.504     -17748.77       231.82141     -1279463.1      310.78712    
     69500   9.5513628      36918.81       60247.673     -17715.71       227.17581     -1279404.8      327.82276    
     70000   9.5426747      37069.496      60296.157     -17726.634      226.20143     -1279333.6      359.96823    
     70500   9.5881907      37163.24       60339.314     -17747.43       228.45177     -1279258.6      387.13436    
     71000   9.4906561      37106.016      60327.144     -17769.88       225.97048     -1279234.3      403.25845    
     71500   9.5265133      37153.768      60309.623     -17738.778      230.48267     -1279168.1      432.0223     
     72000   9.5061269      37072.856      60386.024     -17739.897      228.13774     -1279166.3      468.53453    
     72500   9.5212704      37053.624      60331.129     -17722.629      227.8368      -1279166.6      422.39413    
     73000   9.5881403      37108.619      60336.913     -17735.487      226.07254     -1279177.9      469.96934    
     73500   9.6169216      37060.713      60295.539     -17709.706      226.50275     -1279233.5      415.59387    
     73918   9.5583086      37039.267      60348.666     -17750.466      227.93155     -1279287.4      436.2518     
Loop time of 9084.49 on 1 procs for 30000 steps with 102108 atoms

Performance: 0.143 ns/day, 168.231 hours/ns, 3.302 timesteps/s, 337.195 katom-step/s
92.1% CPU use with 1 MPI tasks x 1 OpenMP threads

MPI task timing breakdown:
Section |  min time  |  avg time  |  max time  |%varavg| %total
---------------------------------------------------------------
Pair    | 99.993     | 99.993     | 99.993     |   0.0 |  1.10
Bond    | 7021.5     | 7021.5     | 7021.5     |   0.0 | 77.29
Kspace  | 1142.7     | 1142.7     | 1142.7     |   0.0 | 12.58
Neigh   | 73.443     | 73.443     | 73.443     |   0.0 |  0.81
Comm    | 16.208     | 16.208     | 16.208     |   0.0 |  0.18
Output  | 1.3445     | 1.3445     | 1.3445     |   0.0 |  0.01
Modify  | 622.29     | 622.29     | 622.29     |   0.0 |  6.85
Other   |            | 107        |            |       |  1.18

Nlocal:         102108 ave      102108 max      102108 min
Histogram: 1 0 0 0 0 0 0 0 0 0
Nghost:          82077 ave       82077 max       82077 min
Histogram: 1 0 0 0 0 0 0 0 0 0
Neighs:              0 ave           0 max           0 min
Histogram: 1 0 0 0 0 0 0 0 0 0
FullNghs:  1.14378e+08 ave 1.14378e+08 max 1.14378e+08 min
Histogram: 1 0 0 0 0 0 0 0 0 0

Total # of neighbors = 1.1437798e+08
Ave neighs/atom = 1120.1667
Ave special neighs/atom = 4.0438359
Neighbor list builds = 181
Dangerous builds = 0
unfix		PRESS
run             20000
PPPM Kokkos initialization ...
  using 12-bit tables for long-range coulomb
  G vector (1/distance) = 0.20843655
  grid = 32 32 160
  stencil order = 5
  estimated absolute RMS force accuracy = 0.037316116
  estimated relative force accuracy = 0.00011237638
  using double precision cuFFT
  3d grid and FFT values/proc = 221778 163840
Generated 210 of 210 mixed pair_coeff terms from sixthpower/sixthpower mixing rule
WARNING: Inconsistent image flags
For more information see https://docs.lammps.org/err0027 (src/domain.cpp:1052)
Per MPI rank memory allocation (min/avg/max) = 668.5 | 668.5 | 668.5 Mbytes
   Step          Temp          E_bond        E_angle        E_dihed        E_impro         PotEng         Press     
     73918   9.5583086      37039.267      60348.666     -17750.466      227.93155     -1279287.4      436.2518     
     74000   9.5385818      37079.137      60270.705     -17742.212      228.26617     -1279296.1      439.5687     
     74500   9.539476       37040.977      60271.906     -17750.268      228.33483     -1279478.5      393.27003    
     75000   9.5108147      36988.731      60267.489     -17753.107      224.49622     -1279720.2      363.71924    
     75500   9.4609544      37035.844      60189.225     -17759.074      223.92811     -1280002.7      342.94355    
     76000   9.5203444      36881.739      60241.628     -17757.63       222.15787     -1280250.7      262.82723    
     76500   9.5685158      36910.368      60160.358     -17795.552      225.97754     -1280450.4      210.60318    
     77000   9.5377987      36841.875      60199.008     -17785.766      221.2536      -1280658        140.85759    
     77500   9.5356231      36787.904      60098.01      -17804.275      219.73803     -1280812.2      116.49738    
     78000   9.5353707      36670.672      60031.324     -17852.834      220.95767     -1280937.9      52.504444    
     78500   9.528283       36676.114      59972.189     -17846.758      220.16311     -1281022.2      54.733667    
     79000   9.5307031      36573.693      59959.849     -17866.944      219.89131     -1281055.2     -39.660214    
     79500   9.5119955      36566.041      60004.012     -17885.828      217.58919     -1281028.8     -9.8512234    
     80000   9.5472324      36622.023      59930.629     -17878.531      218.01789     -1280943.2     -15.988433    
     80500   9.5724735      36559.723      59944.102     -17878.611      221.50209     -1280833.9      4.131587     
     81000   9.553945       36540.732      59958.323     -17894.802      221.78148     -1280709.7     -20.813807    
     81500   9.5543486      36531.919      60053.068     -17950.527      220.06539     -1280595.5     -21.796519    
     82000   9.4721434      36553.796      60020.531     -17941.928      221.43646     -1280473.1      34.129142    
     82500   9.4407654      36508.779      60032.742     -17936.288      219.82032     -1280405.8      8.0937959    
     83000   9.5871894      36576.952      60063.427     -17953.517      222.3339      -1280289.7      49.997677    
     83500   9.5592162      36535.742      60070.505     -17969.357      220.55896     -1280272.1      10.124967    
     84000   9.5208499      36552.761      59991.97      -18000.887      218.79077     -1280279.5      42.532491    
     84500   9.4921898      36557.714      60082.385     -17964.517      217.37108     -1280293.2      58.487052    
     85000   9.4842973      36549.857      60027.985     -17940.386      219.30462     -1280361.8      26.437104    
     85500   9.5211358      36494.702      59988.572     -17966.831      219.35086     -1280467.3      45.932927    
     86000   9.5260276      36547.942      60026.328     -17981.925      219.40326     -1280593.7      26.772351    
     86500   9.5057488      36522.659      60006.56      -18015.38       220.85972     -1280712.1     -12.174178    
     87000   9.559787       36511.87       59925.441     -17997.468      218.16177     -1280864.6     -22.627392    
     87500   9.6286587      36548.31       59941.86      -17983.519      218.64588     -1280978.9     -1.1677097    
     88000   9.5634879      36489.064      59945.265     -17987.207      218.07773     -1281087.7     -42.856614    
     88500   9.5729861      36510.361      60011.168     -17964.121      214.97796     -1281211.1     -78.902568    
     89000   9.5863266      36582.152      59947.877     -17998.952      217.89852     -1281283.2     -35.368793    
     89500   9.5576207      36639.997      59992.915     -17971.803      218.95179     -1281364.9     -82.330609    
     90000   9.5762173      36634.727      59983.94      -17973.58       216.67418     -1281373.3     -47.180545    
     90500   9.5262448      36675.007      60027.967     -17957.467      216.36113     -1281367       -43.387722    
     91000   9.5594742      36753.317      60049.799     -17939.158      216.47771     -1281342.1     -36.091614    
     91500   9.4855093      36744.76       60106.549     -17952.247      219.29693     -1281290.8     -9.9224093    
     92000   9.5101034      36782.204      60116.774     -17985.713      217.61791     -1281249.1      5.1258335    
     92500   9.5709854      36757.53       60121.112     -17965.02       218.20354     -1281167.3      11.938894    
     93000   9.6016573      36805.142      60130.41      -17956.242      219.32542     -1281100.6      26.135248    
     93500   9.5257442      36884.541      60182.537     -17930.868      223.31313     -1281032.8      63.118531    
     93918   9.5538011      36853.952      60149.146     -17927.799      220.0023      -1281031.6      60.599935    
Loop time of 5975.15 on 1 procs for 20000 steps with 102108 atoms

Performance: 0.145 ns/day, 165.976 hours/ns, 3.347 timesteps/s, 341.776 katom-step/s
93.7% CPU use with 1 MPI tasks x 1 OpenMP threads

MPI task timing breakdown:
Section |  min time  |  avg time  |  max time  |%varavg| %total
---------------------------------------------------------------
Pair    | 63.079     | 63.079     | 63.079     |   0.0 |  1.06
Bond    | 4652.5     | 4652.5     | 4652.5     |   0.0 | 77.86
Kspace  | 776.52     | 776.52     | 776.52     |   0.0 | 13.00
Neigh   | 38.961     | 38.961     | 38.961     |   0.0 |  0.65
Comm    | 9.7239     | 9.7239     | 9.7239     |   0.0 |  0.16
Output  | 0.94246    | 0.94246    | 0.94246    |   0.0 |  0.02
Modify  | 368        | 368        | 368        |   0.0 |  6.16
Other   |            | 65.44      |            |       |  1.10

Nlocal:         102108 ave      102108 max      102108 min
Histogram: 1 0 0 0 0 0 0 0 0 0
Nghost:          82033 ave       82033 max       82033 min
Histogram: 1 0 0 0 0 0 0 0 0 0
Neighs:              0 ave           0 max           0 min
Histogram: 1 0 0 0 0 0 0 0 0 0
FullNghs:  1.13771e+08 ave 1.13771e+08 max 1.13771e+08 min
Histogram: 1 0 0 0 0 0 0 0 0 0

Total # of neighbors = 1.1377135e+08
Ave neighs/atom = 1114.2256
Ave special neighs/atom = 4.0438359
Neighbor list builds = 101
Dangerous builds = 0
unfix		rNVT

fix		tNVT mobile nvt temp 10.0 300.0 200.0

timestep	0.5
thermo		1000
run		500000
PPPM Kokkos initialization ...
  using 12-bit tables for long-range coulomb
  G vector (1/distance) = 0.20843655
  grid = 32 32 160
  stencil order = 5
  estimated absolute RMS force accuracy = 0.037316116
  estimated relative force accuracy = 0.00011237638
  using double precision cuFFT
  3d grid and FFT values/proc = 221778 163840
Generated 210 of 210 mixed pair_coeff terms from sixthpower/sixthpower mixing rule
WARNING: Inconsistent image flags
For more information see https://docs.lammps.org/err0027 (src/domain.cpp:1052)
Per MPI rank memory allocation (min/avg/max) = 668.5 | 668.5 | 668.5 Mbytes
   Step          Temp          E_bond        E_angle        E_dihed        E_impro         PotEng         Press     
     93918   9.5538011      36853.952      60149.146     -17927.799      220.0023      -1281031.6      60.599935    
     94000   9.5366627      36832.034      60142.923     -17926.07       219.58556     -1281026.7      61.502553    
     95000   9.7203742      36816.199      60195.024     -17975.692      217.74103     -1280966.1      55.613298    
     96000   10.248059      36802.726      60160.486     -17923.726      223.05032     -1280900.1      37.428204    
     97000   10.974761      36767.144      60116.447     -17904.381      222.38643     -1280871.9      12.531398    
     98000   11.666457      36705.314      60148.179     -17944.646      223.30149     -1280857.7     -6.2220947    
     99000   12.221317      36713.111      60217.016     -17917.245      224.55669     -1280808.4     -8.3260005    
    100000   12.715445      36716.213      60158.885     -17922.24       225.74809     -1280736.3     -38.086856    
    101000   13.097655      36618.075      60264.435     -17937.838      228.31008     -1280560.1     -44.285489    
    102000   13.455858      36688.994      60270.764     -17942.618      231.8123      -1280316.5      17.680915    
    103000   13.886594      36603.731      60322.193     -17948.347      226.99461     -1280007.4      21.951954    
    104000   14.574196      36686.204      60323.581     -17931.259      230.07233     -1279764.7      2.5191602    
    105000   15.321234      36722.099      60403.769     -17938.725      232.68757     -1279550.3      35.675445    
    106000   16.087729      36689.329      60317.738     -17905.636      232.774       -1279399.5      37.386262    
    107000   16.812882      36751.751      60425.634     -17919.428      235.83657     -1279374.1      43.682402    
    108000   17.258385      36716.845      60476.173     -17863.742      235.7558      -1279382.6      51.12972     
    109000   17.842954      36762.168      60524.949     -17904.117      231.98125     -1279343.1      48.442717    
    110000   18.332456      36831.475      60530.704     -17871.381      234.78517     -1279279        85.315374    
    111000   18.861296      36893.686      60699.87      -17873.258      240.2089      -1279135.5      104.23992    
    112000   19.327411      37069.728      60756.984     -17899.998      239.96468     -1278912.7      149.71782    
    113000   19.837094      37075.255      60789.89      -17866.553      244.63654     -1278648.4      150.90115    
    114000   20.484332      37119.831      60823.804     -17861.911      242.92636     -1278419.1      187.63929    
    115000   21.050201      37188.488      60879.405     -17819.934      251.65392     -1278197.3      160.30555    
    116000   21.758747      37079.859      60854.296     -17791.422      247.93875     -1278113.9      170.69852    
    117000   22.341943      37087.494      60913.755     -17840.601      255.35351     -1278069.9      125.96695    
    118000   22.883539      37026.419      60864.788     -17820.332      252.39637     -1278050.5      74.780914    
    119000   23.33875       37065.614      60910.097     -17826.691      258.29106     -1277958.3      73.04784     
    120000   23.892973      37171.973      60970.078     -17800.962      254.68434     -1277871.9      136.72918    
    121000   24.403318      37045.406      61022.426     -17865.215      254.24854     -1277718.8      83.304046    
    122000   24.91602       37042.62       61009.553     -17836.961      254.49636     -1277502.1      107.30151    
    123000   25.401421      37016.659      61051.259     -17854.966      254.95369     -1277226.5      146.11448    
    124000   26.046195      37168.844      61078.98      -17845.418      257.4497      -1277015.9      96.235653    
    125000   26.625752      37137.445      61200.84      -17836.663      261.91751     -1276824.7      126.99268    
    126000   27.349023      37118.51       61175.057     -17830.296      258.15659     -1276750.5      55.67392     
    127000   27.901089      37054.157      61214.228     -17828.569      270.84474     -1276702.7      122.84414    
    128000   28.377132      37101.82       61241.455     -17790.231      269.53617     -1276616.7      120.85995    
    129000   28.958812      37202.333      61343.888     -17808.106      265.08923     -1276581.5      133.01977    
    130000   29.387867      37374.678      61432.439     -17773.888      267.22285     -1276447.2      150.92584    
    131000   29.789903      37404.112      61503.947     -17790.354      270.86765     -1276235.2      145.46995    
    132000   30.469812      37400.847      61598.217     -17798.005      270.28418     -1276067.4      230.0878     
    133000   30.881351      37603.133      61576.956     -17773.726      271.19527     -1275798.7      252.95701    
    134000   31.451694      37518.97       61659.913     -17748.27       277.5144      -1275581.8      223.79337    
    135000   32.256655      37563.73       61639.889     -17758.992      276.84269     -1275471.9      244.68501    
    136000   32.75166       37448.897      61790.375     -17791.205      279.52509     -1275319.3      213.65375    
    137000   33.293011      37498.287      61734.907     -17799.596      281.3338      -1275250.2      152.02127    
    138000   33.859068      37544.13       61749.308     -17733.461      278.15371     -1275181.9      231.49157    
    139000   34.444318      37567.143      61745.679     -17781.295      288.10435     -1275111.4      267.52829    
    140000   34.94655       37580.583      61861.236     -17757.799      282.58802     -1274966.7      128.99165    
    141000   35.366452      37594.27       61874.893     -17758.676      280.20756     -1274783.2      96.0945      
    142000   36.083224      37552.846      61849.258     -17734.661      284.55532     -1274649.6      184.16645    
    143000   36.47744       37664.849      61975.363     -17745.223      289.98733     -1274392.3      190.42966    
    144000   37.088886      37682.176      62017.232     -17743.387      286.45766     -1274209.5      136.23603    
    145000   37.637559      37704.767      61974.411     -17711.469      285.74125     -1274036.4      139.03214    
    146000   38.283698      37679.698      62062.382     -17733.235      292.99695     -1273958.9      153.39792    
    147000   38.769608      37852.513      62004.238     -17734.56       281.42519     -1273859.9      152.85557    
    148000   39.285578      37819.426      62174.357     -17751.437      294.33877     -1273753        257.34911    
    149000   40.001928      37919.44       62185.715     -17728.253      294.92377     -1273719.1      207.26612    
    150000   40.224044      38001.078      62227.366     -17734.284      299.8718      -1273516.9      212.56285    
    151000   40.745804      38128.848      62286.127     -17746.085      287.3134      -1273379.2      297.79806    
    152000   41.139296      38279.855      62450.012     -17704.324      294.16562     -1273166.6      292.27775    
    153000   42.008697      38287.073      62535.544     -17736.208      292.11511     -1273052.6      278.6907     
    154000   42.645441      38359.691      62415.143     -17651.133      297.02634     -1272861.3      299.91124    
    155000   43.193559      38246.04       62597.182     -17737.125      296.25914     -1272682.7      268.04041    
    156000   43.813499      38212.584      62607.638     -17703.144      304.86571     -1272575.6      238.58739    
    157000   44.394757      38323.032      62688.09      -17682.899      300.75023     -1272480        193.25522    
    158000   44.844395      38279.374      62652.848     -17697.872      303.70949     -1272350        184.75182    
    159000   45.28632       38489.724      62559.027     -17704.211      301.82137     -1272201.8      187.22933    
    160000   45.924631      38402.841      62740.493     -17745.395      318.09992     -1272099.5      100.64193    
    161000   46.503385      38453.675      62717.427     -17749.622      312.59661     -1271945.9      220.46873    
    162000   47.176092      38706.911      62855.345     -17720.083      309.81733     -1271784.4      233.43378    
    163000   47.688533      38513.15       62868.594     -17717.146      313.68091     -1271579.6      198.30522    
    164000   48.026298      38548.394      62893.522     -17674.037      312.5603      -1271304.9      259.5339     
    165000   48.879184      38662.209      62802.864     -17672.192      321.72225     -1271242.7      298.12209    
    166000   49.138858      38588.917      62998.576     -17662.14       318.16938     -1271010.9      182.61761    
    167000   49.661961      38658.536      63023.137     -17707.105      314.07181     -1270871.8      209.91017    
    168000   50.410508      38818.019      62967.793     -17707.836      314.34795     -1270814.1      296.80382    
    169000   51.052548      38925.35       63090.287     -17669.931      320.67794     -1270745.2      309.03273    
    170000   51.355935      38915.173      63156.304     -17618.363      312.38098     -1270541.1      346.40359    
    171000   51.990354      39005.01       63258.011     -17627.707      318.52264     -1270400.6      232.21368    
    172000   52.573375      39118.883      63287.541     -17681.459      328.78998     -1270225.6      303.02585    
    173000   53.002504      39037.454      63436.158     -17675.904      327.58447     -1270001.4      241.59267    
    174000   53.639209      39166.698      63449.396     -17641.719      319.03002     -1269869.6      281.88505    
    175000   54.24987       39190.951      63367.279     -17576.594      326.83737     -1269754.2      242.71786    
    176000   54.715688      39257.8        63448.268     -17627.319      327.24886     -1269594.9      197.44054    
    177000   55.492394      39315.88       63647.069     -17633.609      323.11645     -1269525.9      182.10864    
    178000   55.886499      39363.181      63513.015     -17632.989      328.54154     -1269359        260.55917    
    179000   56.395257      39251.227      63772.459     -17678.14       314.69349     -1269233.3      231.45694    
    180000   56.990137      39474.89       63753.366     -17635.097      323.09133     -1269108.3      262.85835    
    181000   57.635805      39442.19       63657.582     -17668.942      336.55821     -1268988.8      284.42825    
    182000   58.071756      39531.091      63854.279     -17661.923      343.27792     -1268791.1      340.12613    
    183000   58.55881       39538.098      63890.584     -17681.721      339.85499     -1268621        270.34571    
    184000   58.921051      39682.449      63847.602     -17645.016      339.53818     -1268409.6      279.77546    
    185000   59.845888      39595.971      63919.123     -17655.376      341.6336      -1268369        260.77186    
    186000   60.485306      39696.879      63823.58      -17610.871      343.11373     -1268271.6      209.55021    
    187000   60.799722      39898.185      64010.765     -17627.509      342.01062     -1268098.4      221.91697    
    188000   61.441473      39759.346      64120.64      -17671.46       345.23249     -1267997.5      192.59406    
    189000   61.875329      40013.363      64019.671     -17630.364      337.35222     -1267816.8      235.02687    
    190000   62.221597      40156.487      63992.721     -17639.358      340.54007     -1267616.2      351.38791    
    191000   63.313899      39922.044      64199.704     -17589.603      345.42632     -1267627        238.82827    
    192000   63.495224      40108.629      64322.659     -17550.728      341.5142      -1267357.6      227.05719    
    193000   64.156594      40179.651      64268.737     -17617.192      350.05407     -1267240.1      375.31484    
    194000   64.590679      40341.752      64316.303     -17651.336      343.47904     -1267081        349.06813    
    195000   65.272252      40344.391      64288.564     -17520.449      349.78875     -1266984.4      348.66152    
    196000   65.808127      40472.749      64316.353     -17678.2        344.19974     -1266864.2      342.87089    
    197000   66.482361      40283.393      64465.119     -17605.177      348.22887     -1266797.7      287.01461    
    198000   66.817465      40372.357      64487.206     -17586.414      343.01722     -1266629.9      392.62162    
    199000   67.711339      40322.844      64531.89      -17577.95       351.41947     -1266597.2      267.45359    
    200000   68.16072       40746.773      64495.78      -17610.184      359.65073     -1266408.4      218.42096    
    201000   68.448493      40658.762      64626.005     -17545.73       350.41498     -1266180.8      179.3479     
    202000   68.977738      40676.985      64634.961     -17592.125      353.94853     -1266032.5      252.34509    
    203000   69.740913      40768.284      64703.736     -17660.209      364.92734     -1265955.1      271.67868    
    204000   70.186381      40886.433      64646.658     -17605.897      362.31983     -1265774.8      296.29586    
    205000   70.596586      40871.81       64714.296     -17607.974      359.0149      -1265561.6      242.97244    
    206000   71.341296      40946.177      64754.83      -17574.762      352.58867     -1265479        204.31067    
    207000   72.019831      41143.015      64863.425     -17618.407      361.33438     -1265383.1      276.38774    
    208000   72.386466      41037.189      64952.634     -17631.731      360.89226     -1265210.8      365.74271    
    209000   72.976799      41141.617      65011.379     -17654.802      358.34203     -1265118        304.03264    
    210000   73.431597      41030.159      64948.586     -17628.17       358.62193     -1264935.8      368.15738    
    211000   74.23768       41263.599      65053.383     -17549.833      357.79173     -1264838.5      361.42312    
    212000   74.618944      41202.647      65336.491     -17580.79       362.84786     -1264602.1      276.35074    
    213000   75.149454      41294.898      65314.794     -17614.054      371.04844     -1264458.8      318.69149    
    214000   75.304446      41564.59       65326.349     -17579.15       367.45135     -1264218.8      306.10084    
    215000   76.079725      41458.795      65358.43      -17579.726      368.72995     -1264138.7      277.62708    
    216000   76.936118      41441.894      65498.194     -17600.723      358.55079     -1264050.6      225.00894    
    217000   77.614902      41781.538      65255.095     -17540.376      379.40707     -1263928.9      299.288      
    218000   77.915759      41690.795      65435.463     -17612.499      359.97724     -1263734.9      305.4631     
    219000   78.472872      41726.351      65477.318     -17622.638      374.81402     -1263596.3      198.3619     
    220000   79.130614      41749.221      65475.816     -17591.441      373.47945     -1263467.3      288.11261    
    221000   79.448975      41820.522      65679.093     -17585.129      386.68181     -1263225.7      218.10644    
    222000   80.083535      41819.493      65614.254     -17533.601      367.63597     -1263061.5      181.07141    
    223000   80.878329      41911.474      65730.878     -17587.166      386.78322     -1262963.4      154.26296    
    224000   81.433921      42129.95       65727.321     -17522.721      382.45164     -1262829.2      266.06094    
    225000   81.843497      42134.349      65762.272     -17613.628      381.16921     -1262664.4      326.47199    
    226000   82.465791      42104.842      65703.177     -17547.491      378.76035     -1262523        346.04912    
    227000   83.128527      42211.079      65879.375     -17539.659      374.75627     -1262398.7      360.46229    
    228000   83.395474      42371.898      65852.909     -17546.4        399.32805     -1262162.6      179.27125    
    229000   83.958815      42503.434      65944.769     -17521.095      395.09792     -1262038.4      308.37477    
    230000   84.747215      42294.348      66139.678     -17578.677      388.38337     -1261945.4      240.81441    
    231000   85.373405      42523.812      66109.621     -17576.551      401.23316     -1261810.4      291.90365    
    232000   85.917402      42596.238      66046.89      -17496.943      384.75627     -1261673.3      180.94187    
    233000   86.597225      42659.629      66135.382     -17565.831      385.68474     -1261553.1      286.04417    
    234000   86.877435      42610.036      66348.213     -17591.017      395.31585     -1261330.8      283.95463    
    235000   87.291811      42838.797      66192.283     -17510.465      395.10525     -1261141.4      207.3338     
    236000   87.77777       42714.579      66406.079     -17497.457      380.70489     -1260973.2      298.17172    
    237000   88.475269      42879.953      66372.518     -17516.187      396.79259     -1260883.9      211.311      
    238000   88.829439      43004.243      66474.655     -17567.936      387.81249     -1260677.2      228.35628    
    239000   89.673014      43034.742      66396.836     -17555.35       388.58132     -1260570.7      409.8653     
    240000   90.196939      42920.702      66518.486     -17551.717      400.64548     -1260417        274.51534    
    241000   90.301279      42993.925      66605.919     -17481.52       395.78925     -1260158.4      197.10753    
    242000   91.541343      43253.673      66554.01      -17473.983      409.01671     -1260217.7      216.79267    
    243000   91.815232      43372.89       66648.15      -17556.232      398.48309     -1259947.4      189.91563    
    244000   92.276374      43485.087      66602.483     -17548.737      402.05972     -1259744.5      335.80129    
    245000   93.395415      43473.546      66786.464     -17577.309      410.69128     -1259755.2      396.61349    
    246000   93.349614      43425.725      66896.181     -17476.97       395.74296     -1259445.6      293.56775    
    247000   94.249231      43636.082      66595.085     -17516.606      402.63532     -1259417.7      241.87315    
    248000   94.727033      43541.122      66775.696     -17499.92       403.67436     -1259213        230.51626    
    249000   95.094827      43831.716      66781.811     -17497.996      401.66545     -1258992.2      381.05961    
    250000   95.778992      43710.237      66930.834     -17507.073      416.61982     -1258868.2      286.37218    
    251000   96.593369      43624.549      66950.618     -17449.667      418.70331     -1258763.9      339.09232    
    252000   97.120507      43736.01       66966.303     -17498.757      425.57368     -1258605        360.17011    
    253000   97.400985      43904.166      67064.904     -17493.677      400.76328     -1258402.4      328.68485    
    254000   98.245122      43723.541      67347.418     -17484.683      408.75658     -1258381.2      329.97911    
    255000   98.458551      43957.442      67234.383     -17518.991      453.07167     -1258110.5      378.16089    
    256000   99.101221      43974.328      67150.059     -17489.147      407.99324     -1257981.7      257.38416    
    257000   99.36098       44005.4        67358.916     -17527.386      417.41133     -1257722.4      339.52971    
    258000   100.21457      44172.619      67518.929     -17553.386      425.60571     -1257656.3      252.25358    
    259000   100.52287      44085.45       67456.526     -17429.336      417.48117     -1257414.2      299.71724    
    260000   101.3107       44250.236      67483.955     -17564.838      414.19489     -1257297.1      300.46806    
    261000   102.0689       44329.161      67285.865     -17538.801      413.12933     -1257198.2      407.83147    
    262000   102.2315       44414.705      67469.699     -17489.068      417.24466     -1256926.4      221.26389    
    263000   102.73495      44568.827      67625.206     -17462.926      416.96789     -1256766.3      92.816661    
    264000   103.59183      44483.8        67594.533     -17512.446      425.07368     -1256734.9      327.04524    
    265000   103.72507      44828.693      67578.373     -17489.731      427.78926     -1256481.9      317.36966    
    266000   104.02106      44661.622      67778.076     -17476.895      422.39841     -1256279.7      275.25016    
    267000   105.19739      44829.151      67831.793     -17500.332      419.37923     -1256294.4      198.01595    
    268000   105.77324      44685.078      67812.799     -17473.168      428.83225     -1256113.2      288.04783    
    269000   106.18459      44897.259      67994.521     -17507.697      431.15665     -1255902.4      416.57527    
    270000   106.77119      44791.28       67805.484     -17417.941      426.07213     -1255809.5      381.07468    
    271000   107.25421      45151.894      67994.486     -17406.721      432.48623     -1255627.2      170.5183     
    272000   107.87536      45034.583      68001.701     -17440.281      421.30867     -1255495.3      303.17112    
    273000   108.2541       44970.997      68009.404     -17415.359      438.82507     -1255271.1      99.752552    
    274000   108.89479      45055.039      68318.53      -17482.357      429.65112     -1255104.3      196.83636    
    275000   109.75474      45217.071      68073.795     -17389.228      428.17408     -1255082.5      248.21287    
    276000   110.16385      45319.631      68012.985     -17363.746      435.56726     -1254944.4      301.81778    
    277000   110.40169      45310.12       68119.045     -17370.785      455.05844     -1254680.4      390.27907    
    278000   111.26705      45555.303      68316.246     -17411.036      437.51998     -1254574.7      385.52995    
    279000   111.73479      45499.856      68191.122     -17417.139      450.4926      -1254415.3      335.97507    
    280000   112.53436      45602.045      68130.173     -17375.158      424.36615     -1254360.7      237.58305    
    281000   113.01239      45540.146      68449.759     -17439.923      428.60992     -1254155.1      280.05547    
    282000   113.00769      45551.883      68428.892     -17360.367      449.04594     -1253799.1      357.2108     
    283000   114.0691       45653.219      68364.317     -17375.068      429.4892      -1253827.1      337.92137    
    284000   114.58322      45844.541      68372.441     -17389.567      441.60365     -1253690.6      280.41476    
    285000   115.10998      45707.128      68546.877     -17444.239      463.65422     -1253502.4      335.69436    
    286000   115.54105      45981.275      68596.288     -17383.512      446.61448     -1253301.7      212.35112    
    287000   115.95452      45984.339      68615.837     -17409.108      453.80491     -1253118.7      438.01487    
    288000   116.81695      45978.799      68806.114     -17391.173      461.58213     -1252996.1      303.21036    
    289000   117.3389       45853.666      68789.952     -17341.279      461.77187     -1252820.6      228.75053    
    290000   117.63505      46153.187      68722.557     -17425.446      451.77969     -1252604.7      456.01007    
    291000   118.25504      46418.457      68596.462     -17386.094      463.21328     -1252456.9      363.44708    
    292000   118.76941      46172.661      68802.958     -17365.739      457.80975     -1252292.1      240.16956    
    293000   119.77274      46252.76       68905.888     -17334.816      441.22075     -1252281.6      374.03711    
    294000   119.86551      46405.335      68893.856     -17286.908      470.72795     -1251982.8      113.36532    
    295000   120.7864       46509.394      68748.926     -17340.83       458.6764      -1251904.3      260.70541    
    296000   121.12742      46259.895      69018.572     -17326.021      467.66568     -1251677.6      265.6867     
    297000   121.50856      46594.529      68842.105     -17338.933      459.75413     -1251498.3      229.0347     
    298000   122.12033      46702.544      69168.193     -17376.734      465.7888      -1251297.6      456.16828    
    299000   123.16546      46494.321      69057.883     -17296.722      465.60128     -1251260.6      172.21756    
    300000   123.31702      46700.547      69144.367     -17367.794      484.57843     -1250982.7      357.17343    
    301000   124.08831      46587.275      69241.817     -17289.122      455.34765     -1250909.7      494.65997    
    302000   124.34253      46761.66       69388.285     -17344.535      448.88276     -1250661        265.54414    
    303000   125.3815       46922.008      69264.43      -17362.036      474.84968     -1250598.7      332.30582    
    304000   125.58707      46971.377      69260.488     -17326.998      466.05991     -1250329.9      236.51709    
    305000   125.97635      46880.204      69476.798     -17297.24       477.88512     -1250141.8      393.65443    
    306000   126.58932      47091.628      69451.389     -17330.565      462.39799     -1250007.3      342.99551    
    307000   127.29055      47068.813      69457.31      -17363.09       480.24391     -1249862.6      224.20507    
    308000   127.91681      47185.793      69735.321     -17322.971      459.56933     -1249675.8      358.42149    
    309000   128.49611      47393.625      69621.874     -17304.513      470.56359     -1249570.6      289.79934    
    310000   128.75976      47127.794      69869.893     -17267.163      469.33329     -1249377.1      414.09434    
    311000   129.9167       47347.715      69541.647     -17316.423      474.08296     -1249345.7      71.934911    
    312000   129.92783      47386.759      69598.452     -17300.157      458.98976     -1248980.7      487.51825    
    313000   130.9476       47374.38       69939.781     -17339.105      475.85624     -1248977.8      424.68306    
    314000   131.40063      47425.602      69655.228     -17206.692      504.55638     -1248804.6      282.66344    
    315000   131.87413      47554.997      69817.486     -17325.989      483.30945     -1248578.8      278.9999     
    316000   132.0677       47671.325      69795.773     -17244.468      487.51929     -1248294.7      318.52036    
    317000   132.66198      47617.521      69944.327     -17277.031      485.79869     -1248140.4      329.73277    
    318000   133.63208      47634.012      70023.728     -17323.6        501.24281     -1248112.8      263.07771    
    319000   134.05108      47697.41       70185.161     -17269.001      476.94897     -1247909        454.01666    
    320000   134.15343      47971.007      70261.932     -17238.828      497.8652      -1247678.1      336.58379    
    321000   135.02636      48011.635      70113.455     -17312.268      494.07958     -1247543.2      463.56172    
    322000   135.55303      47893.906      70185.178     -17258.495      483.78662     -1247335.9      353.25337    
    323000   136.00563      48066.311      70280.789     -17271.19       496.42607     -1247127        371.60079    
    324000   136.73608      48307.98       70077.915     -17318.058      502.44808     -1247026.2      198.559      
    325000   137.33814      48125.045      70443.949     -17240.522      500.83295     -1246872.2      382.78708    
    326000   137.81679      48307.343      70287.107     -17244.474      504.49164     -1246660.3      609.42132    
    327000   138.47375      48313.423      70504.177     -17308.169      502.40652     -1246532.8      329.88512    
    328000   138.26308      48355.425      70812.221     -17321.982      501.46213     -1246143.3      422.21825    
    329000   139.49822      48308.775      70603.041     -17265.331      504.98364     -1246266.4      263.69369    
    330000   140.24213      48441.179      70527.482     -17267.823      492.98478     -1246087.1      245.54188    
    331000   140.29981      48383.038      70388.074     -17300.229      498.86796     -1245686.3      482.11738    
    332000   140.74092      48661.01       70475.722     -17133.882      501.40027     -1245552.3      339.61842    
    333000   141.53531      48686.989      70905.866     -17331.795      469.09345     -1245407.2      244.32629    
    334000   142.36046      48637.709      70570.197     -17228.124      516.91442     -1245305.5      395.42547    
    335000   142.71165      48725.143      70759.886     -17213.418      504.02009     -1245115.2      168.59577    
    336000   143.23397      48922.963      70864.616     -17243.066      503.69527     -1244868.9      230.23693    
    337000   144.21752      48994.379      70821.971     -17276.976      501.287       -1244844.3      191.58256    
    338000   144.06677      48734.197      70986.094     -17281.021      507.36025     -1244524.7      253.11625    
    339000   145.28545      48594.885      71044.398     -17356.439      504.59694     -1244457.2      373.28081    
    340000   145.52059      49046.239      70902.41      -17318.78       507.07965     -1244138.5      428.51672    
    341000   146.67675      49011.433      70987.243     -17203.823      510.8306      -1244212.4      439.24687    
    342000   146.5842       49161.636      71117.125     -17214.544      525.86732     -1243791        327.45012    
    343000   147.23322      49189.273      70916.675     -17170.372      514.42405     -1243640.7      293.96803    
    344000   147.74899      49304.498      71244.584     -17341.079      513.30489     -1243592.1      399.07762    
    345000   147.88889      49076.244      71418.597     -17260.159      526.24372     -1243289.6      420.45296    
    346000   149.02325      49285.877      71201.87      -17299.74       528.96434     -1243157.6      339.66224    
    347000   149.19548      49232.9        71496.854     -17229.908      528.34128     -1242948.4      356.8676     
    348000   150.40098      49191.59       71458.379     -17177.881      511.5904      -1242832.8      260.90994    
    349000   150.13869      49380.541      71545.164     -17282.396      516.3353      -1242723.9      375.05647    
    350000   150.8944       49574.523      71675.745     -17336.543      488.89742     -1242419.3      366.59153    
    351000   151.21982      49442.551      71817.086     -17283.66       535.16446     -1242161.2      417.00571    
    352000   152.12456      49557.538      71535.2       -17251.114      501.6713      -1242280.7      329.88077    
    353000   152.27871      49482.38       71724.701     -17218.295      519.37271     -1241884.9      307.52265    
    354000   153.75225      49704.649      71753.524     -17291.914      535.90744     -1241937.5      388.17691    
    355000   153.3782       49908.568      71772.357     -17304.718      533.62784     -1241425.3      341.78515    
    356000   154.1154       49893.039      71657.308     -17327.306      524.23177     -1241364.9      677.76349    
    357000   154.923        49920.92       71855.179     -17331.043      536.27347     -1241141.7      336.87101    
    358000   155.45718      50028.688      71835.597     -17184.759      521.75977     -1241070.5      382.18808    
    359000   155.981        49729.908      71944.743     -17262.263      518.37059     -1240852        313.83197    
    360000   156.83822      50050.509      71704.952     -17266.138      526.71501     -1240734.1      499.97281    
    361000   156.48302      50234.732      72040.919     -17206.486      544.67106     -1240311.9      583.51156    
    362000   157.89047      50026.546      72128.955     -17283.694      534.6083      -1240425.8      378.92674    
    363000   158.40804      50502.688      72041.163     -17304.794      532.48507     -1240141.7      310.85096    
    364000   159.30267      50469.04       72004.197     -17328.834      506.15652     -1240155.7      342.49978    
    365000   159.47764      50222.305      72320.496     -17279.327      533.91247     -1239697.4      374.44683    
    366000   159.89655      50542.804      72019.417     -17312.211      548.45613     -1239729.3      365.66588    
    367000   160.67218      50236.742      72078.837     -17248.924      526.10876     -1239468.1      394.94478    
    368000   161.3481       50820.59       72170.937     -17269.501      540.11202     -1239219.5      560.72545    
    369000   161.4046       50683.831      72216.409     -17252.668      563.70088     -1239054        481.09204    
    370000   161.6477       50599.122      72264.488     -17311.693      540.88521     -1238741.7      245.54874    
    371000   162.4365       50964.444      72451.861     -17191.03       547.89399     -1238568.8      324.36493    
    372000   163.85494      50526.293      72494.216     -17209.645      546.61619     -1238348.2      422.55708    
    373000   164.08671      50629.466      72270.497     -17244.263      556.11318     -1238427.8      485.36171    
    374000   164.5922       50692.724      72740.433     -17260.02       531.43731     -1238065.6      496.60453    
    375000   164.81201      50811.761      72783.654     -17178.12       566.50813     -1237716.9      353.7985     
    376000   165.48643      50862.217      72567.461     -17248.148      559.57751     -1237725.7      423.4017     
    377000   165.66205      50828.194      72758.389     -17162.518      559.03276     -1237603.9      476.97412    
    378000   166.05255      51241.228      72787.114     -17208.722      552.56784     -1237316        305.47997    
    379000   166.84246      51149.291      72779.203     -17184.272      567.52561     -1237165.2      266.18945    
    380000   167.73169      51151.469      72743.269     -17223.564      551.43872     -1237016.2      252.79747    
    381000   168.08462      51094.45       72676.4       -17122.383      565.51689     -1236710        440.57825    
    382000   169.11849      51243.21       72908.084     -17264.421      534.28208     -1236731.8      421.85248    
    383000   169.56653      51196.013      73055.953     -17197.503      578.15448     -1236454.4      380.72984    
    384000   170.09661      50999.964      73153.279     -17179.146      550.42094     -1236267.9      397.86663    
    385000   169.95855      51229.53       73220.191     -17121.896      562.86863     -1235926.3      382.19862    
    386000   171.51933      51269.241      73199.598     -17189.169      567.23507     -1235991.8      389.17763    
    387000   171.15904      51497.281      73488.159     -17159.837      540.12735     -1235580.6      153.25476    
    388000   172.06081      51518.789      73241.259     -17155.463      574.40114     -1235568.5      476.85735    
    389000   172.45545      51801.726      73183.991     -17175.514      554.34649     -1235206.9      356.03952    
    390000   173.27618      51479.816      73411.284     -17242.437      570.52564     -1235172.5      446.51891    
    391000   173.73198      51896.143      73261.56      -17183.268      550.3486      -1234935.2      476.44047    
    392000   174.30192      51562.812      73222.254     -17205.48       536.6118      -1234664.3      457.68151    
    393000   175.25443      51713.932      73143.896     -17240.576      566.59648     -1234616.8      491.64922    
    394000   175.3619       51949.084      73689.444     -17112.327      543.31917     -1234279.8      480.2738     
    395000   176.02062      51905.065      73534.474     -17103.415      573.48443     -1234132.5      225.459      
    396000   177.37215      51772.496      73551.638     -17107.62       590.30282     -1234129.8      580.17094    
    397000   177.42379      51927.84       73525.351     -17148.381      595.13579     -1233946.4      344.09118    
    398000   177.88734      51932.621      73795.885     -17254.54       572.48285     -1233661.4      417.46239    
    399000   178.60804      52250.485      73460.881     -17106.675      590.81659     -1233289.5      301.44289    
    400000   178.19502      52154.391      73715.06      -17104.761      572.66429     -1233025.9      255.38123    
    401000   179.62214      52417.509      73796.526     -17133.611      570.82335     -1232920.1      482.47416    
    402000   179.52485      52152.463      73811.229     -17179.47       592.62138     -1232761.4      502.33494    
    403000   180.5846       52208.874      73809.786     -17135.946      606.53515     -1232674.7      420.68594    
    404000   181.67563      52267.327      74015.864     -17080.858      580.86387     -1232364.9      408.97692    
    405000   181.54868      52293.36       74044.492     -17075.889      567.66928     -1232138.4      536.76621    
    406000   182.10692      52600.101      73816.95      -17056.74       556.49981     -1231767.1      508.91038    
    407000   183.16361      52570.874      73689.169     -17147.422      584.55175     -1231972.1      533.14017    
    408000   183.30053      52299.936      74071.183     -17123.685      572.77222     -1231669        477.41451    
    409000   183.57174      52376.677      74555.762     -17046.936      585.03218     -1231329.8      664.73769    
    410000   184.51539      52463.371      74218.438     -17119.506      591.46352     -1231401.4      610.15608    
    411000   184.88058      52518.344      74104.658     -17048.385      586.20255     -1231083.8      517.15349    
    412000   185.07931      52489.234      74446.629     -17107.298      599.52654     -1230728.3      622.64803    
    413000   185.31464      52954.906      74060.597     -17054.154      609.26209     -1230376.8      343.93931    
    414000   185.90226      52935.994      74400.906     -17089.281      595.54846     -1230237        473.9231     
    415000   187.24218      52875.748      74517.08      -17108.196      622.95185     -1230273.7      574.11605    
    416000   187.4125       52740.496      74203.064     -17027.831      603.04238     -1229762.4      673.96135    
    417000   188.36984      52819.066      74558.535     -17131.593      585.34097     -1229979.5      555.65855    
    418000   188.90399      52887.725      74918.109     -17188.733      601.60213     -1229528.7      520.85525    
    419000   189.29594      53489.923      74451.762     -17055.235      611.63396     -1229221.9      608.79979    
    420000   190.07244      53230.33       74561.713     -17141.218      592.70677     -1229185.7      722.59035    
    421000   190.96515      53234.882      74493.547     -17032.743      626.88856     -1228775.9      555.91082    
    422000   190.81189      53053.921      74871.104     -17187.638      610.08504     -1228723.7      588.47325    
    423000   190.95036      53462.324      74933.497     -17119.359      632.72701     -1228162.6      683.31462    
    424000   192.20046      53430.345      74691.12      -17080.544      638.51716     -1228230.5      498.15699    
    425000   192.78844      53246.709      74794.036     -17090.199      630.96359     -1228022.3      700.53044    
    426000   193.27382      53095.663      75138.435     -17096.792      629.5027      -1228026.7      738.70682    
    427000   193.96794      53296.241      75107.336     -17081.49       606.63071     -1227684        584.68903    
    428000   194.55759      53290.795      74746.215     -17027.574      615.13308     -1227490.4      590.35337    
    429000   195.33182      53690.501      75103.823     -17173.894      633.44846     -1227306.8      593.37294    
    430000   194.69841      53752.968      74609.356     -17126.738      622.52987     -1227383.4      619.0841     
    431000   195.21524      53719.366      74910.456     -17172.309      632.41875     -1226645.1      578.71545    
    432000   196.34757      53665.234      75140.022     -17073.323      649.36073     -1226472.3      528.40631    
    433000   197.3305       53737.681      75307.614     -17113.675      627.97438     -1226280.8      535.20257    
    434000   197.92901      53819.643      75135.64      -17085.487      620.61949     -1226187.7      508.18581    
    435000   197.74627      54054.57       75074.876     -17196.485      641.60836     -1226175.4      673.86446    
    436000   198.67089      53918.344      75304.221     -17105.407      636.00778     -1225743.7      544.15132    
    437000   199.02698      53732.551      75530.853     -16953.367      663.20741     -1225310.5      557.7085     
    438000   200.58193      54036.029      75527.741     -17142.361      622.02363     -1225207.3      655.49191    
    439000   199.5597       53848.59       75572.379     -17149.48       649.02243     -1225083.9      602.1023     
    440000   201.39162      53970.09       75531.128     -17113.489      654.24287     -1225039.8      607.44555    
    441000   201.39121      54067.191      75733.927     -16977.915      633.97307     -1224714.3      615.25458    
    442000   202.13615      53968.706      75524.588     -17007.674      629.40433     -1224377.8      701.31882    
    443000   202.61406      54098.918      75454.517     -16976.535      638.93297     -1224363.4      552.12261    
    444000   203.76855      54541.462      75531.388     -17032.658      660.01685     -1224034.9      765.64199    
    445000   203.73379      54274.553      75846.179     -17096.315      653.98022     -1223946.2      956.54264    
    446000   204.11467      54556.082      75613.865     -16956.499      646.63699     -1223500        548.55054    
    447000   204.05141      54867.222      75752.491     -17098.699      632.74444     -1223223.1      575.3739     
    448000   205.12917      54463.928      75922.556     -17019.934      654.85485     -1223314.5      766.55172    
    449000   205.75488      54609.287      75939.517     -17021.924      628.69356     -1223088.2      695.36712    
    450000   206.26275      54468.744      75887.863     -16999.297      655.80273     -1222863.9      531.36437    
    451000   207.33928      54347.22       76119.091     -17006.471      646.01505     -1222770.5      958.96176    
    452000   207.38428      54725.692      76140.101     -17004.439      648.45326     -1222363.3      521.40739    
    453000   208.31625      54760.817      76252.599     -17025.603      665.08292     -1222483.3      702.90215    
    454000   208.99963      54645.239      76381.547     -17099.289      658.57183     -1222062.4      763.38559    
    455000   209.77246      54802.291      76392.191     -17048.463      640.18348     -1221800.7      774.00253    
    456000   210.11522      55064.241      76350.133     -16980.922      653.70531     -1221648.5      462.36619    
    457000   209.79645      54938.726      76467.151     -17097.649      657.69705     -1221701.4      739.4161     
    458000   210.86575      55211.994      76360.078     -17057.061      678.04583     -1221347.5      723.95754    
    459000   211.83862      55006.132      76354.182     -17038.351      663.27163     -1221162.3      976.93014    
    460000   211.36044      55152.711      76355.046     -17008.659      631.37858     -1220810.7      798.27938    
    461000   212.59855      55514.393      76181.963     -16937.624      649.14445     -1220567.5      722.88845    
    462000   213.3524       55044.536      76481.22      -16819.76       626.48359     -1220555.9      784.94388    
    463000   213.58109      55234.839      76463.187     -16962.477      671.8858      -1220198.6      722.33953    
    464000   214.16371      55360.863      76759.403     -17051.84       669.77425     -1219853.8      680.20349    
    465000   214.29596      55354.348      76568.94      -16969.093      640.89814     -1219572.7      571.23884    
    466000   215.5783       55402.592      76821.647     -17021.708      668.57884     -1219598.3      865.76254    
    467000   217.03377      55247.294      76836.048     -16958.46       632.87111     -1219384        706.45112    
    468000   216.04834      55113.112      76685.331     -16911.586      678.94134     -1219220.5      770.93283    
    469000   217.14553      55740.106      76715.887     -16921.217      663.74575     -1218798.1      875.22218    
    470000   217.20457      55652.836      76927.713     -16940.43       675.21583     -1218462.6      846.7018     
    471000   217.94038      55533.982      76881.178     -16996.8        648.74937     -1218287.4      829.27905    
    472000   217.85601      55777.39       76969.221     -17047.721      672.40539     -1218493.5      818.95846    
    473000   219.90995      55835.783      76736.11      -17042.487      638.25246     -1218389.7      886.7753     
    474000   220.28403      55867.649      76930.355     -16933.48       661.73269     -1218010.1      679.1767     
    475000   220.23309      56098.213      77012.286     -17011.37       645.65967     -1217219.7      793.40732    
    476000   220.71038      55700.187      77261.417     -16967.507      664.62866     -1217825        824.16213    
    477000   221.0847       56264.558      77226.819     -16984.23       691.90027     -1217183        962.31974    
    478000   222.42995      55905.182      76979.439     -16997.49       659.94787     -1217215.2      699.21065    
    479000   223.10678      56226.933      77360.932     -17110.133      688.39894     -1217011.5      863.38331    
    480000   222.88756      55597.243      77412.18      -16943.079      701.95781     -1216966.5      849.61923    
    481000   224.07846      56298.93       77199.966     -17002.268      678.88269     -1216699.6      895.18581    
    482000   223.50802      56285.677      77525.491     -16978.892      680.48331     -1216199.5      1131.1948    
    483000   224.85307      56251.534      77388.547     -17022.888      659.68556     -1216178.1      1066.0154    
    484000   224.50042      55924.397      77935.627     -16928.443      676.02362     -1215869.9      987.5647     
    485000   226.65186      56333.541      77617.218     -17075.556      700.86295     -1216011.8      895.40676    
    486000   227.52556      56243.078      77366.535     -17042.166      688.46564     -1215644.3      1010.5458    
    487000   227.17414      56365.294      77641.841     -17051.74       679.15162     -1215417.7      1078.5945    
    488000   227.56998      56261.792      77426.098     -16905.86       708.77049     -1215526.7      830.05468    
    489000   227.6951       56430.762      77766.527     -16937.964      662.66148     -1215046.3      937.69332    
    490000   228.42715      56745.064      77472.965     -16955.78       735.88228     -1214720.6      940.13555    
    491000   229.42478      56442.116      77743.681     -16984.585      694.49255     -1214810.4      831.64658    
    492000   229.4362       56552.19       77937.303     -17005.443      717.69956     -1214165.7      1086.8264    
    493000   229.98655      56407.168      78280.706     -16960.488      705.44872     -1214323        915.99845    
    494000   231.54251      56743.258      78019.617     -17019.841      708.43549     -1214150.8      967.76522    
    495000   230.99707      56764.565      77987.071     -16971.773      691.52022     -1213657.4      837.14171    
    496000   232.16538      57085.544      78023.672     -16961.175      714.34139     -1213658.8      913.53611    
    497000   232.88968      56949.329      78188.04      -16988.718      672.67163     -1213267.3      1016.039     
    498000   233.31725      56575.865      77982.41      -16938.819      684.25799     -1213648.4      846.44882    
    499000   232.79735      57168.933      78106.752     -16891.444      709.9768      -1213120.4      1045.154     
    500000   234.40148      56970.771      78192.34      -16932.261      701.0076      -1212807.4      1185.6862    
    501000   235.40759      57084.39       78135.731     -16961.869      682.27327     -1212628.5      895.81027    
    502000   235.60853      56766.509      78463.119     -16895.514      697.64028     -1212141.5      928.28419    
    503000   234.8738       57489.716      77989.1       -16971.239      682.66606     -1212472.6      906.17887    
    504000   236.15376      56924.377      78511.784     -16923.011      672.50465     -1212098        1172.2228    
    505000   237.06888      57506.27       78407.673     -16841.372      703.46033     -1211757.9      968.21679    
    506000   239.09732      57555.761      78628.615     -16907.478      709.18636     -1211464.3      952.10278    
    507000   237.86701      57339.763      78213.959     -16889.247      703.30873     -1211664.5      867.24848    
    508000   238.76931      57084.673      78552.706     -16908.016      745.76864     -1211396.3      962.61863    
    509000   239.16213      57491.48       78539.292     -16894.598      720.21719     -1211118.4      1136.624     
    510000   239.28503      57683.236      78686.8       -17012.977      716.97965     -1210746.2      1188.2531    
    511000   240.3089       57944.172      78437.703     -16910.802      717.29675     -1210520.3      1144.7553    
    512000   240.82167      57851.71       78690.969     -16889.461      713.09403     -1210240.1      1275.1283    
    513000   241.28469      57563.999      78792.725     -16968.114      710.94492     -1210389.5      995.88778    
    514000   242.5591       57673.921      78806.898     -17010.5        767.09877     -1209979.3      1014.6455    
    515000   241.78378      57738.541      78794.658     -16945.577      775.32297     -1210134.8      979.34351    
    516000   242.91604      57699.624      78903.296     -16967.643      758.22671     -1209782.4      1122.0563    
    517000   244.35652      57791.665      78920.54      -16880.748      773.41954     -1209594.2      1123.4518    
    518000   244.78633      57831.194      79066.666     -16936.701      720.76819     -1208942.5      1256.1382    
    519000   243.36042      58225.931      78852.682     -16997.996      729.64977     -1209025.7      1048.8708    
    520000   245.36867      57944.702      79060.128     -16948.394      747.53769     -1208990.4      1014.2791    
    521000   246.02551      58157.394      79095.643     -16935.309      709.24008     -1208510.1      1131.1674    
    522000   247.05467      58291.266      79017.038     -17069.498      716.08462     -1208089.2      1228.4156    
    523000   246.59511      58160.176      79128.826     -16905.82       765.25441     -1208234.1      1194.3645    
    524000   247.30328      58168.211      79040.984     -16945.151      742.02296     -1208166.7      1092.4541    
    525000   248.29159      58293.555      79446.395     -17041.225      753.6912      -1207868.9      1208.206     
    526000   249.96342      58413.565      79092.834     -16942.179      720.05486     -1207815.2      1274.6432    
    527000   249.99174      58310.646      79536.456     -16948.778      742.10364     -1207300.5      1126.8084    
    528000   248.46598      58119.281      79521.818     -16805.139      708.78124     -1207280.5      1100.4403    
    529000   251.18773      58631.113      79197.507     -16889.844      741.58101     -1207457.5      1182.7477    
    530000   251.55652      58501.42       79582.057     -16885.485      720.97574     -1206920.2      1260.9109    
    531000   251.95981      58280.177      79627.704     -16889.514      747.86706     -1206432        1044.4149    
    532000   251.79704      58676.779      79370.935     -17004.525      739.33459     -1206761.2      1243.1415    
    533000   251.93293      58460.274      79538.405     -16846.025      777.76563     -1206305.2      1003.6489    
    534000   252.81627      58686.778      79914         -16930.495      796.95        -1205916.6      1241.5259    
    535000   254.11551      58914.346      79780.384     -16992.754      782.37468     -1205680.7      1251.8517    
    536000   254.14003      58585.453      79377.447     -16846.454      774.88897     -1205670.3      989.87032    
    537000   254.51824      59095.797      79864.99      -16837.685      765.99547     -1205091.9      1108.0564    
    538000   254.15406      58658.649      79720.666     -16892.961      760.33495     -1205435        1106.816     
    539000   256.2826       58879.452      79799.103     -16932.342      761.33838     -1205195.6      1157.6249    
    540000   256.99966      58952.505      80171.207     -16980.525      745.16466     -1204723.2      1070.7345    
    541000   256.19518      58759.155      79886.555     -16920.059      770.39862     -1204871.5      1362.3987    
    542000   257.07731      58862.461      79986.474     -16758.935      768.24743     -1204458.2      1472.9688    
    543000   257.76074      58902.004      80308.186     -16902.302      764.22235     -1204248        1133.329     
    544000   258.57891      59220.424      80373.936     -16895.909      743.17326     -1203729.9      1182.0764    
    545000   258.59445      58857.408      80126.751     -16899.058      774.79809     -1204055.1      1408.7204    
    546000   259.39162      59210.756      80019.19      -16838.279      812.31341     -1203539.1      1289.0573    
    547000   260.35096      59511.552      80280.519     -16791.292      746.95451     -1203265.4      1130.5654    
    548000   262.60947      59352.731      80314.819     -16888.603      760.44105     -1203070.7      1496.3065    
    549000   261.44284      59573.779      80221.899     -16744.906      765.90769     -1203295.7      1223.2647    
    550000   262.63183      59076.031      80782.131     -16824.502      780.89881     -1203041.1      1209.044     
    551000   264.05298      59394.517      80787.834     -16899.032      768.04027     -1202183.5      1138.0411    
    552000   263.15951      59166.885      80295.188     -16923.618      792.17041     -1202440.2      1346.7972    
    553000   263.80602      59837.865      80363.967     -16895.813      796.78513     -1202179.1      1110.0017    
    554000   264.44269      59379.311      80129.6       -16873.282      786.46124     -1202104.5      1469.1037    
    555000   265.82057      59666.027      80709.988     -16869.511      800.51115     -1201724.2      1251.5024    
    556000   265.06978      59605.531      80736.966     -16851.067      784.81736     -1201621.1      1217.6194    
    557000   265.75465      59871.39       80605.66      -16975.28       771.48624     -1201208.5      1505.5797    
    558000   265.84287      59759.245      80652.891     -16784.825      783.8528      -1201046.4      1149.1878    
    559000   267.37226      59969.924      80438.284     -16835.229      784.02211     -1201193.1      1448.7512    
    560000   267.51768      59666.171      80730.278     -16970.505      763.31314     -1200638        1451.025     
    561000   268.47273      60278.899      80791.993     -16823.936      778.45394     -1200470.7      1186.4749    
    562000   267.25396      59768.474      81186.104     -16800.26       754.92991     -1200353.3      1487.6811    
    563000   268.92519      59725.833      80985.379     -16829.839      789.84869     -1200189.7      1646.8477    
    564000   270.83196      59853.575      81039.374     -16893.313      785.43859     -1200202.1      1530.974     
    565000   269.55544      60170.757      80998.733     -16810.399      841.20475     -1199554.1      1362.842     
    566000   272.05592      60261.077      80802.162     -16897.255      797.25469     -1199531.1      1483.9665    
    567000   271.04089      60340.968      80940.186     -16969.752      795.39872     -1199394        1546.1846    
    568000   271.18046      60173.613      81089.629     -16813.483      777.3788      -1199339.4      1391.6743    
    569000   272.0229       60526.398      81126.075     -16825.822      818.90633     -1198872        1125.4494    
    570000   273.13223      60641.757      81043.043     -16873.326      807.55087     -1198602.8      1636.6729    
    571000   273.52857      60517.983      81282.68      -16953.352      784.46587     -1198538.9      1645.611     
    572000   274.4686       60485.211      81599.146     -16799.919      792.44248     -1198217.6      1385.2884    
    573000   274.82265      60102.983      81961.761     -16829.354      784.57955     -1197893.2      1450.7308    
    574000   274.04724      60396.297      81527.174     -16907.269      818.85708     -1198087        1304.9104    
    575000   276.26391      60842.497      81197.533     -16854.021      791.13002     -1197847.5      1559.8498    
    576000   276.76303      60397.404      81427.974     -16775.305      794.70363     -1197363        1576.1455    
    577000   278.72452      60790.421      81701.132     -16884.176      786.59034     -1197098        1713.6615    
    578000   276.8313       60529.311      81688.039     -16878.177      778.28553     -1197240.1      1575.6252    
    579000   277.62692      61125.946      81544.257     -16869.155      786.0236      -1196782.9      1561.9828    
    580000   278.94245      60362.073      81720.027     -16941.947      787.32503     -1197066.5      1573.1477    
    581000   280.57202      61028.826      81730.003     -16797.814      816.87724     -1196590.8      1358.2157    
    582000   278.52841      61043.526      81642.579     -16786.461      798.38416     -1196316.4      1307.7104    
    583000   279.55941      61136.746      81872.209     -16948.063      804.70189     -1195830.9      1463.7398    
    584000   281.20303      61016.767      81753.359     -16788.235      809.59105     -1195993.5      1591.3085    
    585000   281.07344      61044.929      81681.887     -16716.397      834.69047     -1195806.6      1471.8968    
    586000   282.1958       61181.317      81982.23      -16850.948      828.59096     -1195360.3      1585.6709    
    587000   280.72062      61042.918      82194.882     -16776.748      826.34735     -1195207.4      1408.1837    
    588000   282.85569      61568.44       81965.575     -16839.047      821.94924     -1194948.1      1436.7632    
    589000   284.78503      60969.248      82400.154     -17019.516      832.83023     -1195350.2      1625.3739    
    590000   284.80217      61208.05       82577.496     -16784.151      865.74695     -1194799.3      1490.1689    
    591000   284.60035      61397.241      82059.733     -16836.584      807.58524     -1194878.9      1627.5293    
    592000   284.1788       61650.297      82339.087     -16900.154      834.9247      -1193927        1567.8965    
    593000   285.6179       61681.928      81991.317     -16894.847      803.60146     -1193966.9      1488.4259    
    593918   286.33918      61245.255      82624.914     -16771.153      803.41936     -1193577.7      1572.673     
Loop time of 121029 on 1 procs for 500000 steps with 102108 atoms

Performance: 0.178 ns/day, 134.476 hours/ns, 4.131 timesteps/s, 421.834 katom-step/s
92.5% CPU use with 1 MPI tasks x 1 OpenMP threads

MPI task timing breakdown:
Section |  min time  |  avg time  |  max time  |%varavg| %total
---------------------------------------------------------------
Pair    | 1099       | 1099       | 1099       |   0.0 |  0.91
Bond    | 91872      | 91872      | 91872      |   0.0 | 75.91
Kspace  | 14955      | 14955      | 14955      |   0.0 | 12.36
Neigh   | 3247.3     | 3247.3     | 3247.3     |   0.0 |  2.68
Comm    | 372.36     | 372.36     | 372.36     |   0.0 |  0.31
Output  | 28.787     | 28.787     | 28.787     |   0.0 |  0.02
Modify  | 8233.7     | 8233.7     | 8233.7     |   0.0 |  6.80
Other   |            | 1221       |            |       |  1.01

Nlocal:         102108 ave      102108 max      102108 min
Histogram: 1 0 0 0 0 0 0 0 0 0
Nghost:          81699 ave       81699 max       81699 min
Histogram: 1 0 0 0 0 0 0 0 0 0
Neighs:              0 ave           0 max           0 min
Histogram: 1 0 0 0 0 0 0 0 0 0
FullNghs:  1.13155e+08 ave 1.13155e+08 max 1.13155e+08 min
Histogram: 1 0 0 0 0 0 0 0 0 0

Total # of neighbors = 1.131554e+08
Ave neighs/atom = 1108.1933
Ave special neighs/atom = 4.0438359
Neighbor list builds = 9527
Dangerous builds = 0

unfix		tNVT

fix		fNVT mobile nvt temp 300.0 300.0 100.0

timestep	0.5
thermo		1000
run		1500000
PPPM Kokkos initialization ...
  using 12-bit tables for long-range coulomb
  G vector (1/distance) = 0.20843655
  grid = 32 32 160
  stencil order = 5
  estimated absolute RMS force accuracy = 0.037316116
  estimated relative force accuracy = 0.00011237638
  using double precision cuFFT
  3d grid and FFT values/proc = 221778 163840
Generated 210 of 210 mixed pair_coeff terms from sixthpower/sixthpower mixing rule
WARNING: Inconsistent image flags
For more information see https://docs.lammps.org/err0027 (src/domain.cpp:1052)
Per MPI rank memory allocation (min/avg/max) = 668.5 | 668.5 | 668.5 Mbytes
   Step          Temp          E_bond        E_angle        E_dihed        E_impro         PotEng         Press     
    593918   286.33918      61245.255      82624.914     -16771.153      803.41936     -1193577.7      1572.673     
    594000   286.67656      61384.265      82320.644     -16901.856      815.81089     -1193706.7      1667.1883    
    595000   286.07369      61582.503      82337.221     -16828.741      827.99097     -1193837.5      1402.076     
    596000   285.59206      61165.826      82673.88      -16880.289      828.67911     -1193600        1833.8535    
    597000   287.28884      61286.308      82593.174     -16788.287      800.42542     -1193383        1539.5618    
    598000   287.04794      61549.868      82488.269     -17013.039      794.45512     -1194393.5      1581.4747    
    599000   286.43305      61296.625      82526.383     -16759.007      844.13642     -1193751.6      1501.9936    
    600000   285.55308      61676.65       82070.477     -16726.061      840.34757     -1193681.5      1670.081     
    601000   286.03922      61389.678      82164.38      -16891.2        805.0964      -1194144.2      1620.2661    
    602000   285.70456      61555.529      82487.735     -16837.902      801.35494     -1193687.8      1718.2097    
    603000   285.29796      61913.558      82360.356     -16824.356      807.59146     -1193567.3      1710.4885    
    604000   287.11698      61124.04       82447.112     -16864.87       803.84414     -1194272.4      1772.7116    
    605000   287.33974      61710.016      82193.359     -16965.744      809.48314     -1194406.2      1642.4741    
    606000   287.87574      61715.546      82421.468     -16900.194      807.36333     -1194299.2      1660.2516    
    607000   285.49557      61493.157      82326.345     -16907.953      813.30315     -1194045.3      1654.4905    
    608000   286.59488      61497.507      82372.167     -16914.38       797.96959     -1193860.1      1457.595     
    609000   286.53254      61618.207      82113.432     -16862.198      820.09767     -1194231.5      1792.4103    
    610000   285.25875      61532.882      81817.914     -16790.5        827.29968     -1194388.2      1663.5601    
    611000   285.35247      61672.147      82066.698     -16880.99       832.1767      -1193900.4      1593.3376    
    612000   286.30298      61609.941      82345.752     -16859.726      833.34901     -1194125.3      1658.8108    
    613000   285.97991      61364.669      81973.212     -16954.386      856.28586     -1194331.7      1614.921     
    614000   285.46694      61480.063      82543.39      -16896.643      797.66135     -1193667.3      1551.9476    
    615000   286.42682      61515.603      82227.312     -16904.135      804.73466     -1194079.5      1754.3741    
    616000   285.67191      61050.781      82250.414     -16864.795      828.25353     -1194179.4      1462.4798    
    617000   285.70088      61283.992      82204.068     -16941.059      793.70576     -1194039.2      1527.5267    
    618000   286.04332      61632.61       82218.663     -16919.026      824.42845     -1193940.4      1728.9239    
    619000   285.70993      61196.551      81886.176     -16899.178      803.83585     -1194221.5      1767.2979    
    620000   285.01576      62003.721      81939.151     -16964.902      786.90288     -1194383.1      1618.1918    
    621000   285.36414      61446.874      82007.943     -16809.873      825.5614      -1193823        1745.9179    
    622000   287.70217      61189.549      82286.228     -16938.041      782.41167     -1194152        1732.489     
    623000   284.73143      61458.118      81881.061     -16831.826      827.22241     -1194436.2      1544.1353    
    624000   285.46341      61360.452      82316.812     -16920.087      869.43938     -1194290.1      1712.1754    
    625000   285.22627      61150.142      82322.766     -16918.567      818.59563     -1193944.1      1691.6095    
    626000   285.78316      61478.875      82403.239     -16840.771      809.82559     -1193967.5      1631.7641    
    627000   286.83654      61500.674      82381.766     -16771.052      792.91678     -1193750.6      1396.1842    
    628000   285.91592      61212.563      82115.384     -16790.086      779.23856     -1194338.9      1746.9443    
    629000   286.25395      61312.154      82347.335     -16943.631      815.89707     -1194252.1      1539.9815    
    630000   284.20144      61652.258      82135.696     -16790.3        805.84524     -1194053.5      1687.7249    
    631000   285.53551      61511.816      82203.667     -16956.856      773.33512     -1194221.4      1876.2142    
    632000   285.7649       61359.894      82133.835     -16867.996      829.95331     -1194052.5      1551.7736    
    633000   284.98609      61559.04       82251.833     -16866.161      782.09123     -1194218.3      1630.8683    
    634000   286.49023      61498.029      82108.683     -16921.751      817.96187     -1194289.2      1486.9589    
    635000   286.66037      61454.039      82158.484     -16991.712      796.60342     -1194117.4      1671.3795    
    636000   286.67445      61150.316      82258.466     -16923.785      847.34651     -1193978.7      1676.9423    
    637000   286.59936      61285.481      82071.384     -16947.45       825.72652     -1194206.5      1626.9821    
    638000   285.803        61625.078      81907.605     -16929.105      803.71857     -1194137.6      1534.654     
    639000   286.81493      61382.52       81779.763     -16947.433      793.72568     -1194255.6      1457.1851    
    640000   285.99472      61191.392      82229.086     -17072.833      828.62445     -1194090.7      1634.0985    
    641000   286.06309      61458.687      81892.502     -16945.152      823.51621     -1194148.8      1629.999     
    642000   284.49185      61341.962      81866.639     -17009.608      791.08462     -1194153.6      1736.7901    
    643000   286.04031      61487.78       81791.255     -17043.01       847.56007     -1194336.4      1703.7731    
    644000   286.34287      61548.748      81909.423     -16963.259      833.43756     -1194104.5      1544.4224    
    645000   285.8912       61588.537      82126.816     -16886.385      814.68997     -1193723.7      1692.268     
    646000   285.81935      61247.001      82484.535     -17052.449      799.12474     -1193951.3      1536.5083    
    647000   284.97865      61014.164      82058.329     -17035.732      833.43013     -1194547.8      1754.6416    
    648000   285.00033      61316.452      82215.868     -16925.171      783.35657     -1194142.9      1498.6086    
    649000   286.32458      61287.933      82317.605     -16940.399      797.93586     -1194115.8      1686.7098    
    650000   286.1628       61569.055      82132.235     -16995.919      830.44212     -1194031.7      1541.8166    
    651000   288.00485      61045.118      82070.173     -16885.216      826.32524     -1194277.6      1615.4981    
    652000   286.8187       61354.061      82307.86      -17109.094      795.92197     -1194381.7      1446.6136    
    653000   286.85333      61230.661      82034.696     -17090.952      785.81152     -1194330        1781.2705    
    654000   287.10529      60995.922      81849.471     -16898.606      810.8001      -1194620.4      1521.806     
    655000   285.52432      61112.921      82027.453     -16963.681      829.71889     -1194365.2      1715.0424    
    656000   286.92814      61549.621      81727.565     -16894.372      829.2913      -1194045.1      1672.7587    
    657000   287.30578      61368.866      82266.136     -16968.167      812.98225     -1193938.4      2014.5465    
    658000   286.92573      61457.307      81992.036     -16971.637      861.27295     -1193978.4      1906.8091    
    659000   286.34879      61500.101      82003.336     -17048.501      824.03455     -1193971.2      1355.2423    
    660000   286.74496      61251.659      81747.728     -17022.333      805.95903     -1194660.2      1838.7908    
    661000   286.46303      61633.698      82154.71      -17061.179      792.54586     -1194228.1      1549.3885    
    662000   286.96343      61560.645      81954.128     -17071.296      760.4217      -1194628.5      1449.2985    
    663000   286.41769      61121.969      82078.308     -16897.279      806.4113      -1194043.5      1642.5846    
    664000   285.67258      61196.628      82149.522     -17046.885      813.42335     -1194165.9      1677.4029    
    665000   284.9175       60971.222      82330.073     -16990.99       837.4541      -1194538.8      1647.8087    
    666000   285.84938      61074.124      82083.418     -17047.418      813.8517      -1194526.4      1645.142     
    667000   285.46668      61146.889      81999.94      -17062.999      831.41249     -1194649.2      1737.5719    
    668000   286.83934      61459.16       81784.009     -17153.135      816.6375      -1194805.2      1815.3091    
    669000   285.77651      60876.111      82212.285     -17003.333      829.36174     -1194202.8      1603.4489    
    670000   284.55734      61078.124      82110.194     -17079.693      855.17615     -1193761.4      1747.6132    
    671000   285.76822      61295.735      81968.671     -17085.333      829.85157     -1194053        1804.8368    
    672000   285.64358      61478.097      82110.077     -17098.696      792.79067     -1194560.8      1589.4647    
    673000   285.78892      61481.062      81706.738     -17075.432      822.22901     -1194615.8      1589.7558    
    674000   287.40435      61537          82003.339     -17119.589      824.00722     -1194664.3      1626.7126    
    675000   286.81786      61081.713      81763.207     -16938.679      757.62967     -1194803.6      1745.8939    
    676000   285.91886      61381.827      82162.593     -17095.432      800.48777     -1194041.2      1586.5264    
    677000   286.62582      61517.437      81967.586     -16928.225      795.17038     -1194193.4      1489.4093    
    678000   286.94687      61318.52       82219.887     -17017.715      784.78936     -1194119.9      1579.5674    
    679000   286.64967      61385.697      81943.076     -17235.01       831.18971     -1194289.2      1708.6727    
    680000   286.40089      61187.014      82073.159     -17068.808      781.85574     -1194834.2      1611.4286    
    681000   285.59857      61450.271      81837.82      -17119.548      791.31599     -1194422.9      1688.7205    
    682000   285.29693      61083.35       81881.337     -17002.796      814.66946     -1194142.2      1695.3432    
    683000   286.08996      61282.841      81871.597     -17137.27       806.77496     -1194081.9      1653.0471    
    684000   286.6817       61512.747      81992.924     -17057.039      807.21209     -1194093.9      1745.1726    
    685000   287.32016      61507.576      81929.561     -17092.045      814.21652     -1194461.2      1696.8262    
    686000   285.32174      61149.959      82353.847     -17134.023      833.48759     -1194359.8      1564.6917    
    687000   287.12147      61578.637      81964.471     -17120.801      848.78266     -1194240.9      1664.4894    
    688000   285.97824      61165.756      81595.29      -17000.151      820.53644     -1194562.4      1341.6589    
    689000   284.50332      61458.779      81796.166     -17069.183      772.67435     -1194143.3      1736.9511    
    690000   286.22119      61106.579      81925.95      -17096.616      810.59125     -1194393        1650.7047    
    691000   286.39475      61040.254      81707.067     -17060.316      793.25058     -1194572        1526.0874    
    692000   285.32513      60984.221      82115.314     -16935.794      814.58693     -1194326.9      1479.2256    
    693000   286.67441      60867.256      82048.248     -17101.663      824.55442     -1194473.1      1635.9613    
    694000   286.47475      60879.711      81954.087     -17149.594      800.66544     -1194705.9      1588.4648    
    695000   285.72436      61256.966      81876.133     -17083.903      823.83506     -1194324.2      1564.0965    
    696000   286.69711      61359.521      81972.688     -17251.141      813.05302     -1194747.4      1804.2247    
    697000   286.08407      61075.222      82053.435     -17101.923      826.54678     -1194587.3      1597.8757    
    698000   286.8779       61476.795      82181.627     -17260.56       864.66863     -1193976.8      1667.7343    
    699000   286.59708      61528.412      81657.923     -17158.355      818.53825     -1194748.5      1829.9269    
    700000   286.43434      61066.408      81843.355     -17045.336      798.26306     -1195024.1      1475.6934    
    701000   285.80483      61360.847      82153.186     -17242.43       796.06222     -1194611.4      1700.2357    
    702000   286.55057      60941.907      82231.221     -17113.148      811.48279     -1194576.6      1707.8822    
    703000   286.42941      61505.197      82280.278     -17168.559      806.32532     -1194096.1      1754.6952    
    704000   287.23722      61365.766      82117.759     -17143.42       823.5535      -1194600.7      1663.8032    
    705000   285.7586       61397.2        81902.265     -17166.708      835.19076     -1194670.1      1621.2383    
    706000   285.8984       61333.697      82137.852     -17145.94       809.61235     -1194629.2      1541.1181    
    707000   285.44824      61409.048      81924.292     -17280.382      822.00478     -1194481.6      1794.8054    
    708000   285.90187      61050.584      81882.314     -17107.191      799.51798     -1194717.4      1305.205     
    709000   285.82291      61323.659      81982.444     -17231.611      825.25077     -1194688.4      1790.4248    
    710000   285.99153      61432.711      82264.711     -17200.532      826.43155     -1194412.9      1755.3587    
    711000   286.22002      61320.608      82276.013     -17379.828      823.70195     -1194691.8      1594.6935    
    712000   285.97598      61474.823      81966.336     -17152.788      795.87913     -1194544.5      1601.3806    
    713000   286.76853      61173.831      81804.264     -17175.765      811.88606     -1194621.9      1633.1447    
    714000   285.62302      61422.614      81757.385     -17223.44       805.31242     -1194525.6      1557.1342    
    715000   284.35879      61401.939      82052.371     -17268.943      784.85441     -1194351.2      1645.0592    
    716000   285.58329      61263.305      81594.604     -17241.332      799.29396     -1194719.4      1714.9814    
    717000   286.24973      61406.155      81932.003     -17281.657      820.69986     -1194221        1586.7068    
    718000   285.7377       61288.256      81891.274     -17262.489      784.39292     -1194424.5      1584.6571    
    719000   286.24174      61262.711      81666.71      -17265.156      819.17586     -1194806.2      1797.2925    
    720000   286.16702      61327.893      82094.162     -17344.738      821.93871     -1194754.5      1835.4933    
    721000   287.44496      60988.067      82116.458     -17063.325      812.29899     -1194647.1      1691.3385    
    722000   285.84636      60928.927      82354.937     -17124.176      833.84686     -1194487.1      1464.5893    
    723000   285.43869      61311.99       82080.165     -17175.014      832.34624     -1194675.5      1677.9215    
    724000   286.80146      60962.556      82061.638     -17277.634      814.46382     -1194943        1680.6246    
    725000   287.04399      61521.375      82190.262     -17269.148      791.48115     -1194505.4      1717.503     
    726000   287.55021      60997.657      81751.247     -17255.788      843.36274     -1194915.3      1518.6141    
    727000   287.15522      61232.516      81818.403     -17199.472      796.42832     -1194370.6      1818.916     
    728000   285.59472      61250.887      82200.311     -17241.775      799.84059     -1194625.2      1677.8819    
    729000   286.24149      61111.058      81875.029     -17353.036      821.92833     -1194783        1543.8734    
    730000   286.84692      61402.969      81882.078     -17362.244      815.67424     -1194751.8      1667.1605    
    731000   285.56038      61167.13       82175.005     -17225.172      817.16442     -1194359.8      1633.8037    
    732000   286.42555      61496.902      82035.537     -17321.958      832.91006     -1194509.2      1579.7314    
    733000   286.16072      61590.523      82113.468     -17372.105      819.54793     -1194592        1534.8064    
    734000   285.29183      61441.782      81951.59      -17195.93       785.63877     -1194710.3      1492.5315    
    735000   285.46801      61402.193      81937.208     -17254.86       821.50343     -1194418.4      1744.9079    
    736000   287.63481      61223.177      82065.716     -17201.738      799.35776     -1194479.5      1410.3203    
    737000   286.83894      61140.458      81882.687     -17275.277      823.88804     -1194928.1      1623.3541    
    738000   286.01115      61241.566      81808.791     -17078.426      798.42485     -1194431.9      1648.7501    
    739000   286.24253      61229.821      82015.988     -17224.875      839.4231      -1194490.3      1586.6542    
    740000   286.1204       61538.949      81892.659     -17201.453      806.8118      -1194428.1      1669.9332    
    741000   285.34551      61327.067      81761.724     -17342.434      787.42694     -1194821.9      1680.4161    
    742000   285.84735      61420.208      81479.027     -17302.919      834.53069     -1194954.3      1693.8544    
    743000   286.39323      61235.245      81990.371     -17268.28       818.45441     -1194258.6      1446.2166    
    744000   286.75996      61105.094      82043.32      -17279.469      810.24399     -1194801.7      1535.5243    
    745000   286.81976      61401.518      81852.19      -17366.902      794.21167     -1194985.4      1754.3536    
    746000   285.51488      61125.025      81948.158     -17422.236      795.62347     -1195061.2      1539.3078    
    747000   285.51906      61119.858      81881.731     -17378.589      798.20835     -1194869.9      1757.3477    
    748000   284.21503      61399.265      82194.532     -17329.833      845.83618     -1194416.8      1614.6912    
    749000   285.24865      61467.825      82125.882     -17255.068      824.70089     -1194198.7      1793.0932    
    750000   285.75291      61061.902      82134.218     -17289.158      821.15249     -1194548.1      1486.4429    
    751000   286.48041      61356.24       81431.65      -17384.135      794.05624     -1195015.8      1681.359     
    752000   286.22385      61597.44       81639.005     -17412.513      807.52784     -1195044.6      1621.7259    
    753000   286.10655      61021.315      82036.207     -17379.694      812.31097     -1194866        1858.8012    
    754000   286.05153      61635.078      81827.74      -17246.34       838.43781     -1194429.3      1530.4455    
    755000   285.62476      61344.44       81853.835     -17211.256      811.10106     -1194060.4      1701.6243    
    756000   286.30129      61299.821      82333.026     -17375.903      814.58389     -1194325.1      1670.2332    
    757000   286.1084       60809.287      81718.241     -17208.064      812.19436     -1195017.2      1516.6691    
    758000   287.72439      60938.173      81640.547     -17297.844      831.98698     -1195113.3      1649.568     
    759000   285.12662      61024.997      82156.569     -17350.368      837.76794     -1194820.7      1795.1156    
    760000   284.8587       61182.807      82040.805     -17228.548      815.47618     -1194479.2      1586.2221    
    761000   286.90889      61022.887      82281.841     -17441.049      828.05502     -1194626.4      1571.4302    
    762000   287.28806      61265.31       81789.759     -17423.59       829.15949     -1194911.8      1836.7731    
    763000   285.67275      61164.825      81691.315     -17365.226      836.99476     -1194788.2      1565.8584    
    764000   285.22931      60995.675      81834.216     -17326.463      773.06434     -1194539.5      1429.8226    
    765000   286.41786      60986.403      81918.416     -17419.245      780.5091      -1194823.5      1614.5177    
    766000   287.88139      61485.351      81778.207     -17298.151      833.61916     -1194438.2      1487.3477    
    767000   287.01557      61333.538      81744.905     -17403.253      810.62839     -1194474.8      1577.3637    
    768000   286.82026      61091.201      81569.608     -17281.323      806.7758      -1195019.7      1582.8074    
    769000   285.89956      61294.569      81932.163     -17304.598      766.43265     -1194460.7      1621.6012    
    770000   286.62865      61215.663      82042.999     -17362.413      805.7935      -1194933.2      1716.5547    
    771000   286.64884      61259.628      81808.922     -17266.207      813.07429     -1194798.8      1706.5888    
    772000   287.52753      61456.346      82025.793     -17253.712      792.12931     -1194152.3      1866.568     
    773000   285.63599      61404.859      81839.069     -17318.081      823.49342     -1194606.6      1632.1909    
    774000   286.15004      60869.522      81836.232     -17388.094      768.38884     -1195011.1      1746.6792    
    775000   285.69306      61369.231      82021.116     -17462.08       774.0735      -1194394.6      1817.1387    
    776000   287.42717      61112.506      81955.172     -17321.432      831.50351     -1195278.9      1510.5182    
    777000   285.39269      60960.398      81664.603     -17361.235      814.14716     -1194853.5      1665.9805    
    778000   286.44117      61130.236      81824.968     -17305.454      820.3207      -1194907.6      1700.1878    
    779000   286.50462      61175.672      81663.999     -17365.417      827.9982      -1195028.2      1441.2798    
    780000   286.41314      60703.683      81996.941     -17264.448      797.39401     -1194889.7      1470.4439    
    781000   286.95566      61150.749      82202.678     -17443.134      820.40965     -1194521.3      1607.4352    
    782000   285.08871      60749.625      81865.069     -17432.027      791.92367     -1195229.3      1634.1916    
    783000   286.4029       61133.762      81870.696     -17328.286      795.53442     -1194674.2      1738.5268    
    784000   286.04507      61456.795      81924.082     -17300.004      834.64707     -1194420.5      1654.2723    
    785000   285.41011      61353.787      81931.654     -17378.147      769.14387     -1194575.6      1556.0092    
    786000   284.76919      61299.294      81602.35      -17374.4        813.65436     -1194864.2      1773.0751    
    787000   286.77606      60923.633      81796.386     -17353.855      816.87181     -1194713.2      1844.4169    
    788000   286.13175      61013.128      82042.535     -17404.179      833.37389     -1194411.6      1850.5504    
    789000   285.79944      61278.404      81665.046     -17193.421      840.53871     -1194825.3      1501.2487    
    790000   285.44382      61403.445      81451.378     -17331.831      839.571       -1194980.3      1759.3985    
    791000   285.98587      61614.256      81828.548     -17440.743      803.51405     -1194468.8      1658.9443    
    792000   287.25709      61199.29       81868.72      -17502.913      839.89019     -1194500.9      1652.3973    
    793000   285.38792      60922.312      81432.305     -17364.433      795.24951     -1195166.5      1582.3557    
    794000   286.82579      61456.28       81621.126     -17323.673      798.14175     -1194569.7      1597.4014    
    795000   285.95415      61521.861      81772.782     -17476.543      817.73913     -1194472.9      1743.2147    
    796000   284.96146      61203.004      81831.179     -17439.099      804.67726     -1194897.4      1523.71      
    797000   286.42715      60962.468      81955.032     -17454.247      810.33322     -1195132.4      1689.8053    
    798000   287.32715      61433.55       81865.421     -17470.914      770.79098     -1194928.3      1687.861     
    799000   286.6209       61463.617      81781.202     -17419.973      822.1657      -1194837.2      1650.4377    
    800000   286.4506       61534.291      81728.678     -17447.145      778.74975     -1194876.5      1402.8269    
    801000   286.1694       61457.798      81770.051     -17414.796      792.3644      -1194644.2      1478.3415    
    802000   285.70329      61000.077      81950.826     -17521.862      831.07246     -1194938.1      1742.3126    
    803000   285.56029      61638.528      81522.476     -17417.227      815.86088     -1194971.6      1567.3105    
    804000   285.20245      61265.87       81790.028     -17391.613      785.37106     -1194596.5      1677.2855    
    805000   285.80009      61193.79       81669.608     -17398.005      786.58618     -1194697.4      1473.3002    
    806000   285.38304      61143.808      81630.602     -17545.938      788.54071     -1194585        1854.7702    
    807000   286.97041      61126.054      81883.91      -17412.068      783.67492     -1194549.3      1602.9034    
    808000   287.2479       61292.483      81999.689     -17484.434      818.53758     -1194385.6      1832.8591    
    809000   287.38218      61304.766      81508.614     -17476.216      815.55464     -1194588        1975.6368    
    810000   287.25056      60709.714      81701.679     -17316.495      752.71009     -1195125        1436.5761    
    811000   286.51942      61377.73       81777.369     -17452.849      783.2597      -1194611.6      1841.789     
    812000   285.60988      61346.793      81215.694     -17588.961      796.21641     -1195342.3      1827.2727    
    813000   287.0469       61096.082      81396.045     -17403.602      784.62932     -1194588.7      1621.8439    
    814000   286.19715      61177.2        81715.968     -17511.919      773.34102     -1194778.3      1748.0937    
    815000   286.86324      61034.64       81575.921     -17387.368      790.33569     -1195022        1755.6915    
    816000   286.1018       61009.567      81454.813     -17462.262      762.07307     -1195233.2      1854.9559    
    817000   286.23998      61517.658      81447.988     -17390.854      819.34175     -1194425.4      1572.887     
    818000   286.752        61197.032      81581.641     -17302.012      784.84512     -1194444.5      1600.5296    
    819000   284.4048       61238.646      81426.613     -17443.122      775.45825     -1194767.9      1554.3865    
    820000   285.80827      61258.317      81572.042     -17527.499      792.67651     -1194859.2      1579.7539    
    821000   286.93276      61164.877      81797.85      -17577.301      792.48431     -1194548.6      1702.8472    
    822000   287.08868      61566.723      81315.337     -17493.604      811.48381     -1194538.8      1797.1142    
    823000   286.32742      61277.805      81687.282     -17384.875      792.161       -1194360.3      1790.1894    
    824000   285.44717      61266.794      81519.995     -17445.213      833.28019     -1194668.1      1754.9925    
    825000   285.45136      60993.311      81657.315     -17352.55       842.34095     -1194891.6      1739.172     
    826000   283.27653      60924.827      81578.639     -17399.179      795.37306     -1194845.6      1506.7466    
    827000   286.79644      61376.014      81848.205     -17478.149      785.22694     -1194578.3      1746.6817    
    828000   286.78977      61219.212      81636.584     -17324.019      803.63892     -1195098.6      1716.8463    
    829000   284.95595      61325.767      81814.062     -17407.717      789.56331     -1194494.1      1581.3096    
    830000   285.98099      61179.962      81631.337     -17322.015      792.28978     -1194925.6      1629.528     
    831000   286.06804      61115.607      82156.307     -17494.237      817.55685     -1194854.9      1669.5539    
    832000   286.05339      60887.051      82037.157     -17356.805      866.28503     -1194722.7      1612.2298    
    833000   286.61787      60990.508      81855.52      -17405.597      780.05947     -1195155.5      1891.7977    
    834000   284.36107      61471.34       81534.176     -17488.759      803.81305     -1194950.3      1922.8317    
    835000   284.76602      61137.229      82129.989     -17404.463      795.7179      -1194402.8      1629.2549    
    836000   285.54231      61231.182      82159.171     -17532.3        796.92508     -1194611.6      1638.1989    
    837000   286.22784      61179.663      81870.348     -17413.94       801.70281     -1195182        1785.389     
    838000   286.24287      61194.021      81970.138     -17395.794      801.70948     -1194505.5      1663.3367    
    839000   285.81342      61357.841      81858.778     -17394.839      781.80542     -1194738.3      1826.0017    
    840000   286.37048      60949.149      81748.31      -17486.011      795.67851     -1195278.5      1843.1421    
    841000   286.9505       61376.85       81648.473     -17347.634      818.83308     -1194547.3      1895.8278    
    842000   284.65392      61101.314      81262.261     -17459.039      788.54584     -1195156.5      1642.1946    
    843000   286.60214      61464.952      81754.716     -17393.142      746.99605     -1194488.6      1539.0692    
    844000   285.92067      61576.349      81784.635     -17499.109      808.58872     -1195272.7      1645.7902    
    845000   286.79219      61058.663      81396.809     -17358.044      817.30182     -1195173.7      1809.3982    
    846000   287.41628      61525.464      81764.319     -17415.232      814.52427     -1194913.5      1738.7572    
    847000   286.71469      61285.346      81557.029     -17437.163      807.89809     -1194722.4      1585.4812    
    848000   285.36125      61261.628      81885.122     -17485.929      792.65451     -1195141.9      1621.876     
    849000   286.39111      61027.779      81774.25      -17499          793.45948     -1195082.9      1623.6881    
    850000   288.3932       61314.273      81573.899     -17464.177      784.52986     -1194833.7      1650.6883    
    851000   284.68304      61525.834      81702.303     -17456.134      772.34779     -1195034.3      1616.3338    
    852000   285.54199      61549.562      81820.628     -17526.971      816.09875     -1194914.1      1689.1833    
    853000   287.62624      61441.937      81612.721     -17570.279      813.2954      -1194985.9      1466.4837    
    854000   286.35193      61585.174      81471.141     -17436.73       838.36477     -1194768.5      1363.9571    
    855000   286.73957      61379.2        81289.448     -17378.537      833.29594     -1195062.5      1613.7739    
    856000   286.29948      61292.375      81429.956     -17471.576      769.35726     -1195061.9      1526.0782    
    857000   285.91517      61452.824      81721.117     -17478.91       797.00398     -1195138.3      1398.767     
    858000   285.76692      61770.698      81862.347     -17494.108      777.98757     -1194635.9      1582.3297    
    859000   285.80969      61350.259      81947.493     -17362.191      827.2691      -1194500.8      1628.8366    
    860000   285.30511      61162.867      81658.551     -17488.599      841.72186     -1194593.5      1738.3315    
    861000   286.06802      61410.442      81533.466     -17402.926      807.63676     -1195331.6      1531.7967    
    862000   286.60185      60972.126      81779.815     -17434.608      781.35012     -1194483.9      1671.8603    
    863000   286.37123      60761.293      82056.914     -17588.511      796.97069     -1194773.5      1631.6567    
    864000   286.11944      61368.808      81420.072     -17504.799      805.43297     -1194979.8      1641.0821    
    865000   286.00058      61117.933      82114.385     -17474.003      824.92895     -1194859.5      1516.0686    
    866000   285.05026      60830.872      81907.616     -17474.451      782.08629     -1195211.7      1646.5569    
    867000   284.60128      61459.12       81585.828     -17592.852      849.25679     -1194811.7      1666.504     
    868000   285.84774      61219.545      81933.831     -17430.373      804.72341     -1195025.7      1656.7842    
    869000   285.65959      61252.253      81678.566     -17516.723      823.10475     -1194997.8      1759.4392    
    870000   286.16062      60951.712      81960.668     -17589.502      808.52379     -1194903.8      1551.9756    
    871000   287.19691      61209.853      81962.903     -17500.327      823.60837     -1194928.7      1648.6901    
    872000   287.42689      61408.572      81621.776     -17593.043      794.32357     -1195163        1676.2055    
    873000   285.72773      61376.744      82222.863     -17409.23       772.00839     -1194800.4      1330.886     
    874000   286.66526      61279.878      81584.948     -17551.784      789.64328     -1195306.8      1504.5334    
    875000   285.62664      61014.189      82125.665     -17584.265      799.31458     -1194972.4      1668.3538    
    876000   286.1577       61281.926      81965.424     -17600.95       779.68076     -1195322.3      1656.3273    
    877000   287.18812      61459.825      81699.416     -17577.761      817.88774     -1195062        1500.4941    
    878000   287.20704      61398.202      81675.166     -17558.317      820.23499     -1194923.8      1761.9245    
    879000   286.76405      61606.491      82041.833     -17608.912      805.87347     -1194624.3      1709.8747    
    880000   286.30375      60999.843      81728.65      -17496.407      796.6954      -1195040        1703.461     
    881000   284.8551       61611.178      81551.518     -17646.48       794.11606     -1194849.6      1805.4406    
    882000   285.10249      61034.968      81833.818     -17563.558      801.14181     -1195095.8      1684.3637    
    883000   284.41121      61515.672      81453.332     -17588.934      775.34598     -1195188.9      1745.9506    
    884000   284.77586      61017.023      81983.182     -17468.105      753.18479     -1194863.2      1608.9778    
    885000   286.72009      61146.778      81778.555     -17602.767      800.9038      -1195124.1      1776.9044    
    886000   286.95077      61252.11       81595.252     -17541.753      781.51437     -1195211.9      1364.0041    
    887000   285.47071      61757.574      81592.369     -17601.919      807.36461     -1194847.7      1882.526     
    888000   286.6843       61397.214      82008.137     -17528.641      827.14223     -1194749.6      1409.5653    
    889000   287.90425      61440.908      82020.1       -17612.561      773.35598     -1194965.8      1830.9815    
    890000   286.46012      61277.666      81588.397     -17392.54       777.72052     -1195118.8      1666.0497    
    891000   285.90815      61213.303      82026.358     -17515.933      748.31272     -1195285.3      1578.546     
    892000   286.61177      61110.47       81728.856     -17514.273      803.35115     -1195316.7      1517.4938    
    893000   286.57914      60996.311      81906.112     -17528.319      791.30819     -1194731.3      1451.0405    
    894000   286.1881       61294.089      81700.701     -17631.629      779.33267     -1194833.4      1634.9381    
    895000   286.5898       61076.323      81656.033     -17536.136      823.80737     -1195046        1773.7868    
    896000   285.83021      61039.492      81871.51      -17589.41       807.18907     -1195167.1      1842.4934    
    897000   285.74267      61202.806      81361.169     -17581.373      775.21294     -1195553.4      1532.763     
    898000   285.53289      61298.785      81497.452     -17528.681      804.50198     -1195113.3      1612.4484    
    899000   286.90649      61163.44       81503.647     -17531.421      769.59852     -1195534.9      1609.8339    
    900000   285.96704      61240.438      81614.136     -17532.956      802.84204     -1195224.7      1444.5863    
    901000   287.19328      61034.256      81574.096     -17512.112      829.6948      -1195277.8      1595.5935    
    902000   286.02794      61645.047      81883.29      -17623.814      810.29716     -1194717.9      1612.4648    
    903000   286.05082      61048.858      81793.072     -17628.625      834.39145     -1195153.6      1854.5233    
    904000   286.54917      61305.462      81616.311     -17644.41       806.66803     -1195633.4      1831.9734    
    905000   285.94262      61098.193      81509.341     -17654.653      819.16772     -1195206.3      1612.2542    
    906000   285.68264      61208.979      81497.506     -17619.968      789.36235     -1195191        1596.6331    
    907000   286.78297      61204.242      81851.097     -17596.809      775.39711     -1195213.2      1573.2676    
    908000   287.18169      61168.045      81464.936     -17639.408      802.29142     -1195125.2      1795.3616    
    909000   287.00365      61202.677      81697.415     -17607.27       801.82558     -1194953.3      1478.427     
    910000   287.76681      61387.287      81591.565     -17593.267      797.32279     -1195418.4      1526.6454    
    911000   285.6477       61446.523      81450.678     -17654.821      765.58779     -1195197.1      1727.2713    
    912000   286.19377      61195.386      81725.82      -17651.819      801.96425     -1195136.9      1511.442     
    913000   286.55504      60999.795      81533.16      -17628.679      791.7376      -1195227.2      1653.1057    
    914000   286.6249       61250.616      81970.944     -17671.77       765.20255     -1194976.6      1636.8972    
    915000   286.78109      61528.117      81482.108     -17634.632      807.01494     -1195417.6      1680.0236    
    916000   286.86769      61051.478      81813.137     -17704.473      799.11216     -1195075.5      1665.1626    
    917000   286.79807      60931.884      82089.105     -17646.178      795.39243     -1195063.3      1740.1221    
    918000   284.69782      61064.822      81998.424     -17621.652      821.56044     -1195186.9      1554.9866    
    919000   285.54376      60587.265      81966.643     -17763.846      798.51306     -1195456.7      1716.7665    
    920000   285.48192      61139.252      81950.991     -17635.783      788.65588     -1195398.9      1703.7744    
    921000   286.50571      61426.158      81544.776     -17651.828      775.0222      -1195318.3      1458.722     
    922000   286.33638      61270.358      81785.248     -17730.153      784.08445     -1195196.2      1681.3027    
    923000   287.78811      61390.115      81662.488     -17683.437      745.44004     -1195337.1      1686.6381    
    924000   286.00479      61347.505      81635.475     -17789.612      807.79032     -1195044.3      1437.0295    
    925000   286.81483      61011.215      81389.814     -17787.686      779.56829     -1195716        1685.0978    
    926000   286.1158       61052.869      81629.899     -17658.584      772.08157     -1195527.9      1708.7584    
    927000   287.33659      61044.812      81737.405     -17615.038      804.27652     -1195460.6      1589.1784    
    928000   286.94461      61301.338      81947.522     -17626.52       801.52398     -1195062.1      1675.0897    
    929000   284.98044      61234.915      81377.377     -17607.179      797.95873     -1195349.2      1818.1284    
    930000   285.45853      61033.412      81647.495     -17630.613      810.1495      -1195563.2      1521.1082    
    931000   286.17239      61383.347      81769.003     -17686.374      806.00661     -1195383.9      1441.464     
    932000   287.19647      61144.003      81752.477     -17693.575      753.34742     -1195257.5      1556.1653    
    933000   286.21681      61446.899      81825.708     -17756.628      799.61008     -1194633.7      1671.8505    
    934000   285.8876       61439.365      81744.418     -17716.231      773.05145     -1195059.8      1711.6659    
    935000   286.62791      61099.641      81532.916     -17751.985      786.42446     -1195464.6      1823.4002    
    936000   286.82304      61113.289      81699.719     -17701.885      787.24433     -1194712.9      1511.6146    
    937000   286.11769      61364.542      81545.893     -17611.216      819.38587     -1195279        1705.4457    
    938000   287.18162      61594.252      81355.888     -17664.526      798.07442     -1195213        1859.1995    
    939000   286.70739      61034.952      81702.072     -17751.825      813.51338     -1195163.6      1657.8718    
    940000   285.18808      61146.5        81561.222     -17664.569      802.6057      -1194837.9      1762.3134    
    941000   286.2752       61145.704      81654.789     -17712.353      854.70209     -1195041.6      1412.4195    
    942000   285.80565      61190.437      81980.076     -17769.764      803.19335     -1195205.9      1514.8797    
    943000   285.70797      61328.809      81775.61      -17671.693      807.8314      -1195118.9      1639.9512    
    944000   285.3332       60851.414      81823.45      -17680.694      797.71843     -1194893.5      1499.0604    
    945000   286.10672      61256.768      81672.022     -17608.503      807.10796     -1195113        1641.5767    
    946000   286.67746      61584.568      81782.095     -17734.917      791.04744     -1194667.7      1733.5819    
    947000   285.67148      61451.592      81471.768     -17555.241      789.00028     -1195119.4      1802.7618    
    948000   285.81953      61545.474      81452.786     -17741.403      799.07957     -1195393.2      1574.4243    
    949000   285.56529      61288.612      81503.492     -17738.425      829.25858     -1194995.7      1431.4245    
    950000   286.40755      61043.72       81749.231     -17649.194      819.47853     -1195285        1640.2836    
    951000   286.188        61068.289      82034.036     -17756.778      785.92453     -1194881.3      1605.4563    
    952000   286.4802       61352.243      81579.081     -17501.473      797.2515      -1194945.2      1584.7057    
    953000   285.61786      61416.097      81867.082     -17678.023      814.16855     -1195068.1      1329.658     
    954000   287.00911      61204.214      81636.27      -17694.543      825.54013     -1194968.7      1473.4888    
    955000   287.22822      61034.525      81783.881     -17689.7        848.64578     -1194892.2      1582.4144    
    956000   286.34052      61282.253      81944.873     -17790.787      837.79947     -1194893.3      1597.3683    
    957000   286.70307      61417.736      81529.907     -17737.121      819.36275     -1195275.9      1444.3567    
    958000   287.24813      61214.669      81699.229     -17616.871      783.99186     -1195410.1      1627.7067    
    959000   286.53471      61340.31       81365.788     -17643.304      813.52551     -1195297.4      1628.1642    
    960000   286.37944      61250.109      81494.287     -17598.019      781.18087     -1195870.2      1584.1542    
    961000   285.77908      60976.234      81608.166     -17721.372      804.81592     -1195268.2      1670.1836    
    962000   285.4407       60788.552      81782.333     -17717.61       820.35011     -1194920        1515.6476    
    963000   286.70286      61519.341      81674.385     -17805.666      812.21323     -1195209.7      1711.6223    
    964000   286.55472      60986.848      81944.703     -17757.6        789.97064     -1195038.1      1465.567     
    965000   286.38325      61230.129      81806.876     -17733.481      817.43784     -1195167        1779.8703    
    966000   286.58043      61003.153      81952.801     -17789.294      805.5243      -1195496        1596.326     
    967000   285.10271      61349.198      81689.462     -17782.937      787.50466     -1195847.8      1646.9838    
    968000   286.94817      61237.784      81607.607     -17595.428      803.50594     -1195388        1599.5986    
    969000   285.98287      61310.307      81303.248     -17730.163      820.08184     -1195089.3      1683.3324    
    970000   286.89916      61258.729      81770.201     -17725.429      801.51656     -1195508.7      1495.1342    
    971000   287.11205      61203.371      81301.51      -17821.686      827.84542     -1195697.2      1654.2649    
    972000   286.70875      61062.925      81392.747     -17686.584      807.2233      -1195058.6      1570.7527    
    973000   285.99317      61345.16       81276.2       -17708.634      822.18486     -1195910.6      1551.1683    
    974000   287.40329      61084.212      81572.022     -17751.491      794.0216      -1195030.7      1726.831     
    975000   285.81973      60990.062      81588.326     -17678.768      764.35645     -1195236.2      1694.1228    
    976000   285.66978      61695.062      81262.112     -17704.374      791.74492     -1195225.5      1411.3956    
    977000   286.52299      61211.459      81627.592     -17677.243      791.90696     -1195337        1591.1134    
    978000   288.38114      61297.43       81480.995     -17731.379      808.42403     -1194987.6      1905.4809    
    979000   286.34591      61300.888      81713.664     -17673.435      788.69593     -1195016.2      1618.0861    
    980000   286.4622       61108.973      81685.798     -17684.176      799.49655     -1195554.7      1769.2605    
    981000   286.46927      61135.486      81778.193     -17721.234      764.57453     -1195051.7      1361.374     
    982000   286.2466       61356.009      81724.985     -17774.554      820.81875     -1194846.4      1720.8676    
    983000   286.992        61469.502      81757.982     -17760.184      772.93634     -1195040.3      1640.4583    
    984000   285.9592       61247.466      81514.085     -17612.716      799.53285     -1195354.3      1618.0652    
    985000   286.31526      61640.435      81468.829     -17623.014      766.78079     -1194744.2      1693.9588    
    986000   286.51479      61143.56       81539.517     -17715.639      810.39109     -1195417.3      1746.2891    
    987000   286.9262       61227.332      81579.385     -17759.506      784.27827     -1195757.4      1802.2515    
    988000   285.01519      60850.476      81772.399     -17755.794      849.97162     -1195612.6      1493.5102    
    989000   284.68256      61383.169      81488.607     -17682.931      796.85522     -1195447.2      1629.3775    
    990000   285.60399      61090.132      81716.178     -17839.07       804.15872     -1195456.6      1839.7313    
    991000   285.83114      61335.432      81407.751     -17561.817      802.28751     -1195339.4      1691.4494    
    992000   287.52547      61265.908      81784.902     -17616.612      841.41283     -1195111.1      1628.3827    
    993000   286.27845      61080.992      81537.172     -17748.802      797.03348     -1195545.1      1647.9108    
    994000   285.60627      61284.057      81518.717     -17645.749      834.68614     -1195197        1661.9921    
    995000   286.62685      60967.135      81481.92      -17740.496      789.38153     -1195585        1571.3167    
    996000   286.28522      61355.856      82050.623     -17789.217      779.63546     -1194684.9      1586.5874    
    997000   287.23062      61324.449      81731.5       -17823.945      796.74652     -1194949.8      1668.5843    
    998000   286.85645      60482.431      81639.616     -17747.514      777.85598     -1195754.8      1489.8764    
    999000   285.27002      61292.672      81400.959     -17635.865      759.29308     -1195014.1      1579.4263    
   1000000   285.44378      61044.074      81568.79      -17645.282      783.62909     -1195108.7      1615.6523    
   1001000   285.94212      61238.706      81316.612     -17809.693      760.83136     -1195347.2      1517.726     
   1002000   286.23193      61378.192      81638.367     -17718.938      827.87153     -1194828.5      1851.8803    
   1003000   286.60431      60952.88       81764.537     -17740.848      829.5229      -1194803.4      1733.0465    
   1004000   285.80026      61354.291      81757.79      -17712.137      809.51305     -1195151.3      1732.114     
   1005000   286.46046      61587.097      81474.217     -17709.672      795.62356     -1195330.8      1696.0307    
   1006000   286.37999      61327.046      81775.057     -17660.194      753.56177     -1195007        1556.0717    
   1007000   286.81933      61044.674      81268.39      -17725.155      824.4193      -1195533.9      1710.967     
   1008000   284.49221      61579.013      81582.88      -17665.176      792.15516     -1194787.8      1489.1005    
   1009000   285.16051      61011.023      81642.552     -17713.358      783.88994     -1195099        1910.0975    
   1010000   286.74525      61223.608      81692.668     -17729.675      763.50059     -1195124.5      1765.0691    
   1011000   286.71242      61369.12       81456.716     -17641.584      841.22708     -1194625.3      1650.007     
   1012000   286.77324      61741.391      81464.826     -17662.355      823.4112      -1195080.5      1406.9096    
   1013000   286.25374      60926.182      81502.814     -17648.012      816.03517     -1195110.7      1666.6086    
   1014000   286.29339      61538.633      81542.332     -17657.576      807.996       -1195011.5      1367.8251    
   1015000   285.58923      61044.252      81540.395     -17785.903      808.77389     -1195165.5      1782.6184    
   1016000   285.28511      61055.513      81844.776     -17726.287      837.90829     -1194756.2      1709.7572    
   1017000   286.32173      61485.143      81486.338     -17656.998      815.29275     -1194832.6      1472.9915    
   1018000   287.88243      61071.729      81790.077     -17805.647      794.60079     -1195475.2      1813.7857    
   1019000   285.79471      61138.18       81816.543     -17793.249      800.87682     -1195077        1586.6115    
   1020000   285.03628      61201.897      81422.535     -17731.414      791.63631     -1195229        1616.6315    
   1021000   286.19251      61120.649      81683.013     -17872.553      791.79479     -1195112.8      1506.864     
   1022000   286.72918      61038.495      81472.866     -17788.764      795.30583     -1195662.8      1841.2663    
   1023000   286.7928       60844.606      81338.071     -17773.553      785.78202     -1195752.6      1785.5806    
   1024000   286.11765      60962.663      81522.332     -17695.926      764.88284     -1195441.7      1482.8392    
   1025000   286.84215      61053.763      81495.017     -17633.175      802.62244     -1195331.9      1692.8378    
   1026000   285.61008      60978.546      81607.615     -17766.725      800.52578     -1195346.5      1799.1149    
   1027000   285.35383      61395.312      81668.73      -17791.227      815.08142     -1194942.9      1590.0627    
   1028000   285.1629       60846.183      81598.497     -17665.611      783.06215     -1195739.8      1433.0428    
   1029000   285.65614      60868.956      81338.79      -17716.533      811.75596     -1195703.5      1517.3465    
   1030000   287.26323      60980.404      81647.792     -17722.176      808.65524     -1195503        1688.539     
   1031000   287.1519       61307.853      81479.792     -17754.779      771.00385     -1195164.2      1675.1516    
   1032000   286.66341      61058.492      81643.689     -17746.982      827.55782     -1195297.7      1476.126     
   1033000   286.08586      60992.989      81415.559     -17701.9        766.54742     -1195400.9      1539.2163    
   1034000   286.33578      61185.678      81476.523     -17773.955      826.99764     -1195397.6      1639.3107    
   1035000   286.35226      61446.02       81248.281     -17811.844      830.03534     -1195640.6      1714.3748    
   1036000   285.37158      61452.771      81709.159     -17777.284      805.43551     -1195019.7      1409.8638    
   1037000   286.04895      61313.323      81393.379     -17692.5        766.4537      -1195192.9      1808.1195    
   1038000   285.87894      61105.789      81477.851     -17756.754      783.42878     -1195511.6      1982.2027    
   1039000   285.60922      61144.57       81556.665     -17838.916      770.90406     -1195458.2      1444.661     
   1040000   286.51581      61193.589      81565.973     -17853.545      764.83518     -1195660.7      1754.6556    
   1041000   285.43993      61331.727      81648.834     -17759.55       813.25162     -1195299.1      1483.2571    
   1042000   285.58237      61733.464      81682.619     -17792.252      763.88582     -1194899.3      1512.0295    
   1043000   286.83807      60882.266      81708.828     -17769.486      783.59399     -1195522.6      1698.0417    
   1044000   284.64294      61072.773      81681.59      -17774.014      805.76238     -1195600.5      1627.2652    
   1045000   286.18449      61442.345      81665.74      -17855.971      796.3488      -1195729.3      1722.7782    
   1046000   285.72223      61278.918      81714.132     -17849.489      825.96143     -1194937.4      1479.7126    
   1047000   285.73017      61242.227      81256.585     -17795.992      824.20391     -1195167.1      1876.3907    
   1048000   285.24812      61204.347      81632.603     -17749.256      790.23493     -1195174.2      1837.7042    
   1049000   286.16501      61391.506      81241.778     -17778.207      769.11142     -1195299.1      1462.9084    
   1050000   286.22402      61620.319      81643.229     -17748.503      782.38556     -1195072        1659.8738    
   1051000   286.60762      60993.659      81588.535     -17830.038      764.83989     -1195580.4      1920.0643    
   1052000   284.80895      61101.732      81467.763     -17737.687      802.01568     -1195397.9      1564.8651    
   1053000   285.61199      61281.414      81562.44      -17783.018      761.26001     -1195092.1      1782.0284    
   1054000   285.21107      60952.122      81331.563     -17847.328      762.49021     -1195968.3      1861.5938    
   1055000   286.22206      61217.448      81498.189     -17820.946      838.76243     -1195717.5      1538.8522    
   1056000   285.90058      60915.733      81651.338     -17758.775      829.94161     -1195406.8      1695.9144    
   1057000   288.05427      61031.436      81930.797     -17790.311      800.32988     -1195236        1606.7082    
   1058000   286.07152      61127.862      81773.352     -17875.952      786.5876      -1195441.1      1556.6307    
   1059000   286.33216      61495.72       81306.584     -17906.218      818.20419     -1195560.4      1589.4097    
   1060000   286.70339      61175.653      81689.632     -17790.596      809.1826      -1195267.2      1467.9496    
   1061000   287.24905      61151.749      81530.253     -17866.387      782.89848     -1195618.1      1565.3878    
   1062000   286.23907      61528.678      81346.631     -17773.87       792.84384     -1195235.5      1763.5958    
   1063000   285.26139      61156.702      81367.265     -17965.558      794.48871     -1195807.5      1812.5843    
   1064000   286.18197      61153.52       80923.933     -17787.848      800.61042     -1195570.3      1614.7836    
   1065000   285.31         61488.144      81563.804     -17799.916      803.98758     -1194908.4      1707.5087    
   1066000   285.29639      61248.91       81701.702     -17966.882      810.39199     -1195295.4      1467.0587    
   1067000   286.08498      61205.526      81339.48      -17892.254      793.00001     -1195514.1      1975.5446    
   1068000   285.03928      61807.757      81186.263     -17789.158      783.0732      -1195073.6      1487.4144    
   1069000   285.97427      61030.708      81144.503     -17683.054      802.90543     -1195456.3      1638.1979    
   1070000   286.01524      61181.817      81670.134     -17799.112      780.02497     -1195339        1509.4367    
   1071000   285.76429      61175.588      81670.196     -17850.448      821.84708     -1195189        1703.2521    
   1072000   287.28544      61087.018      81609.436     -17729.696      781.02189     -1195462.5      1571.6615    
   1073000   285.98878      61115.021      81633.67      -17807.862      788.76305     -1195264.3      1782.7092    
   1074000   286.35491      61187.807      81374.575     -17689.244      812.79358     -1195352.8      1692.2992    
   1075000   286.25257      61622.492      81446.265     -17775.072      775.92005     -1194994.6      1642.8455    
   1076000   286.70818      61248.636      81770.381     -17746.732      773.51921     -1195022.9      1938.3061    
   1077000   286.67965      61114.719      81453.465     -17636.641      772.0807      -1194895        1571.1792    
   1078000   286.02331      61094.002      81331.063     -17810.178      755.60694     -1195697.5      1698.1206    
   1079000   285.51567      61086.346      81307.607     -17688.276      810.2391      -1195243.5      1638.7211    
   1080000   285.34211      61392.736      81566.388     -17817.278      806.33186     -1195354.2      1571.7997    
   1081000   288.03284      61074.053      81462.623     -17740.654      802.45509     -1195467.5      1749.9096    
   1082000   286.37248      61432.255      81343.034     -17724.272      837.33673     -1195128.9      1685.4632    
   1083000   286.08602      61255.772      81753.371     -17804.62       792.59589     -1195433.5      1462.2738    
   1084000   285.94661      61142.186      81542.247     -17941.593      751.84043     -1195907.2      1384.3389    
   1085000   286.45479      61352.944      81042.262     -17797.995      787.69415     -1195905.4      1670.3923    
   1086000   286.93391      61551.204      81434.467     -17854.855      807.78549     -1195186.1      1732.6487    
   1087000   287.46614      61109.849      81107.776     -17727.686      776.10275     -1195610.1      1573.7774    
   1088000   285.5688       60926.403      81477.071     -17664.4        792.34556     -1195231.6      1861.6099    
   1089000   284.86919      61210.073      81507.312     -17702.601      793.30066     -1195280.6      1542.785     
   1090000   285.72097      61070.33       81568.871     -17650.245      796.38891     -1194995.5      1575.7536    
   1091000   285.54026      61053.448      81624.86      -17851.776      837.53932     -1194704.4      1658.1066    
   1092000   286.5429       61174.738      81356.332     -17783.467      789.37114     -1195195        1819.8538    
   1093000   285.23058      60987.135      81492.014     -17815.579      746.41821     -1195734.1      1558.1332    
   1094000   285.68172      61185.535      81240.95      -17889.361      804.14455     -1195750        1579.5965    
   1095000   287.34063      61349.217      81644.044     -17954.919      779.26244     -1195710.5      1644.6244    
   1096000   286.58235      61242.432      81508.857     -17797.469      767.25435     -1195280.6      1820.6627    
   1097000   287.06654      60845.3        81671.167     -17824.448      776.53558     -1195482.4      1619.2487    
   1098000   285.74839      61039.511      81733.984     -17966.95       768.18796     -1195344.9      1627.4524    
   1099000   285.46216      60986.053      81273.366     -17798.365      833.4293      -1195164.5      1792.885     
   1100000   285.48859      60972.062      81339.458     -17618.247      759.31565     -1195256.6      1553.1922    
   1101000   286.87096      61132.233      81605.401     -17924.49       801.28138     -1195013.6      1802.6327    
   1102000   285.52831      61282.316      81240.966     -17841.548      804.35819     -1195353.9      1624.3959    
   1103000   285.53483      61061.501      81359.914     -17668.503      754.00143     -1195446.2      1678.7001    
   1104000   286.99128      61242.842      81621.583     -17807.718      785.92245     -1195052.6      1540.3818    
   1105000   287.63274      61569.958      81376.049     -17804.026      791.27233     -1195460.3      1480.8961    
   1106000   286.03277      61332.696      81474.056     -17785.896      796.23378     -1195540.5      1657.2444    
   1107000   287.02967      61325.867      81361.97      -17992.836      758.6252      -1195992.4      1571.6831    
   1108000   286.62092      61541.68       81393.523     -17838.041      808.99489     -1195157.4      1721.9038    
   1109000   285.84426      61289.309      81225.251     -17817.752      788.59878     -1195570.3      1537.9954    
   1110000   285.49856      61153.713      81565.434     -17832.953      776.06754     -1195304.6      1550.2795    
   1111000   286.47045      61229.278      81557.444     -17840.994      800.62189     -1195379.4      1368.2518    
   1112000   285.83823      61437.376      81338.783     -17904.27       797.26639     -1195238.6      1940.4152    
   1113000   287.21828      61406.849      81365.835     -17784.018      826.34244     -1195176.2      1683.9091    
   1114000   285.9762       61194.805      81417.487     -17774.429      770.02517     -1195022.6      1615.4814    
   1115000   286.32525      61055.485      81228.519     -17853.529      784.63962     -1195509        1621.739     
   1116000   286.04304      61477.981      81222.95      -17770.699      799.62659     -1195342.5      1715.1746    
   1117000   286.34234      61280.749      81209.036     -17827.247      787.2585      -1195004.3      1795.4608    
   1118000   286.03815      61033.908      81435.549     -17705.579      826.17891     -1195379.9      1659.567     
   1119000   285.6083       61164.105      81792.515     -17727.888      817.30732     -1195258.4      1909.8697    
   1120000   285.23178      61135.666      81436.384     -17800.988      780.01217     -1195655        1643.5106    
   1121000   286.59841      61294.926      81348.385     -17831.765      773.2359      -1195328.6      1682.2446    
   1122000   285.7574       61113.102      81469.569     -17769.189      819.95939     -1195366.3      1871.0645    
   1123000   286.28217      61235.26       81215.927     -17790.702      817.90322     -1195503.1      1756.2763    
   1124000   286.4464       61175.719      81557.344     -17803.99       794.7901      -1195084.6      1696.6337    
   1125000   286.33066      61510.494      81317.107     -17717.46       785.66913     -1195307.2      1656.7797    
   1126000   287.02021      61282.724      81491.01      -17775.708      771.57574     -1195350.6      1562.1623    
   1127000   286.62494      61230.204      81316.363     -17894.905      805.00823     -1195638.5      1676.0036    
   1128000   286.36479      61671.63       81328.961     -17884.326      828.33839     -1195153.2      1628.3325    
   1129000   285.45187      61311.513      81490.926     -17744.253      807.81871     -1195444.6      1535.4152    
   1130000   285.88322      61193.527      81281.226     -17859.769      799.4449      -1196066.9      1622.9894    
   1131000   286.23068      61046.484      81237.173     -17802.12       816.88168     -1195896.5      1654.1296    
   1132000   286.17448      61344.695      81605.27      -17905.27       798.30345     -1195506.6      1581.4677    
   1133000   285.99394      60863.519      81535.935     -17798.11       778.21174     -1195250.7      1680.7381    
   1134000   285.42879      61249.42       81348.573     -17719.878      793.3154      -1195450        1521.7482    
   1135000   284.96314      61245.37       81442.439     -17766.638      792.14186     -1195667.3      1500.1334    
   1136000   285.19743      61245.765      81213.853     -17825.983      813.17792     -1195396.4      1675.3833    
   1137000   286.60393      60768.054      81569.493     -17792.977      786.28868     -1195361.2      1675.3204    
   1138000   287.52212      61063.253      81305.696     -17948.917      770.87027     -1195801.3      1896.1078    
   1139000   285.92996      61031.081      81711.65      -17728.369      776.04308     -1195682.9      1594.9444    
   1140000   284.85091      60954.7        81347.49      -17886.929      783.06417     -1195754.5      1700.7729    
   1141000   286.48823      60876.491      81378.155     -17796.444      812.36909     -1195578.6      1661.4201    
   1142000   284.57749      61064.492      81870.73      -17807.573      807.55592     -1195535.4      1691.002     
   1143000   286.59254      61094.396      81097.97      -17786.353      767.22838     -1195984.2      1638.7543    
   1144000   287.45292      60898.63       81427.401     -17852.664      797.16256     -1195926.2      1710.3263    
   1145000   286.00308      60956.509      81480.971     -17809.474      796.61861     -1195066.9      1720.9278    
   1146000   286.35211      61158.61       81735.39      -17845.847      786.51292     -1195615        1753.1173    
   1147000   285.63372      61036.807      81800.967     -17779.821      777.64504     -1195407        1603.6286    
   1148000   286.51111      61006.514      81681.779     -17864.158      788.16314     -1195304.9      1683.4715    
   1149000   286.58198      61089.626      81509.103     -17752.556      845.19003     -1195140.5      1724.7196    
   1150000   286.07556      60978.806      81507.596     -17915.815      810.56682     -1195092.5      1627.2935    
   1151000   285.90702      61294.22       81605.394     -17773.782      793.6871      -1195374.5      1512.6534    
   1152000   286.35152      60774.05       81540.992     -17723.416      806.56793     -1195411.2      1558.0598    
   1153000   285.63537      61034.935      81306.635     -17795.448      806.47329     -1195309.7      1639.906     
   1154000   286.04977      60881.947      81235.403     -17794.116      800.87352     -1195415.1      1777.7917    
   1155000   285.66757      60934.056      81675.923     -17780.376      798.28976     -1194996        1619.7172    
   1156000   286.26122      60949.461      81497.21      -17876.437      797.06669     -1195173.7      1811.8941    
   1157000   286.09771      61233.969      81474.598     -18034.838      813.10197     -1195258.1      1542.8287    
   1158000   286.45782      60842.028      81389.804     -17852.565      810.23257     -1195638.5      1697.7297    
   1159000   286.53279      61113.565      81220.209     -17912.792      779.56893     -1195633.5      1901.9889    
   1160000   285.70429      61348.545      81245.895     -17792.52       803.42634     -1194873.1      1660.5058    
   1161000   286.51441      61199.208      81529.28      -17805.784      758.46189     -1194763.4      1721.5743    
   1162000   285.89209      60816.706      81500.39      -17744.884      787.82742     -1195563.8      1717.0154    
   1163000   286.09588      60869.33       81304.084     -17899.305      773.94324     -1195602.8      1651.3497    
   1164000   286.20633      60804.303      81133.621     -17771.387      800.89411     -1195814        1639.096     
   1165000   285.5266       61243.968      81368.748     -17802.879      773.60701     -1195490        1734.6094    
   1166000   287.13035      61247.074      81803.263     -17906.041      797.30942     -1195272.5      1376.9923    
   1167000   286.32583      61362.968      81184.703     -17795.653      802.78532     -1195079        1672.9409    
   1168000   286.50095      61011.03       81556.979     -17767.579      806.33843     -1195385.8      1622.8728    
   1169000   285.14043      61143.499      81275.217     -17818.079      801.19456     -1195426.7      1901.7278    
   1170000   285.43317      61259.686      81273.358     -17861.543      750.66418     -1195148.2      1954.4181    
   1171000   286.28848      61239.089      81753.61      -17784.271      772.52515     -1195188.6      1785.5538    
   1172000   285.76958      60952.588      81371.157     -17969.803      795.04399     -1195791.1      1621.4303    
   1173000   285.83692      60801.58       81246.784     -17752.07       765.39602     -1195409.2      1376.6152    
   1174000   286.04846      60933.328      81482.855     -17912.229      805.78411     -1195596.6      1616.7269    
   1175000   285.61223      60937.455      81494.132     -17780.445      801.23971     -1195470.1      1765.5216    
   1176000   286.83174      60865.483      81268.275     -17912.958      793.45333     -1195836.3      1553.5761    
   1177000   285.69638      61257.04       81472.704     -17908.557      787.32701     -1194879.3      1696.6073    
   1178000   286.19768      60852.035      81567.304     -17780.708      792.40924     -1195396.2      1777.4041    
   1179000   285.81148      60900.401      81559.739     -17812.805      780.24364     -1195584.8      1680.3791    
   1180000   285.81896      60841.732      81567.855     -17877.511      759.63751     -1195614.1      1629.4119    
   1181000   285.46533      61047.039      81256.08      -17838.051      789.32943     -1195567.5      1472.1556    
   1182000   285.92495      61191.752      81432.321     -17827.581      766.31428     -1195438        1675.8192    
   1183000   286.32621      60968.474      81571.787     -17924.226      814.47885     -1195401.9      1676.1255    
   1184000   286.20578      60762.159      81581.887     -17907.703      779.81475     -1195843.1      1717.6595    
   1185000   285.39837      61176.788      81307.443     -17934.333      737.3749      -1195759.2      1742.0267    
   1186000   287.8084       61459.598      81730.769     -17774.427      776.48045     -1195084.2      1800.3395    
   1187000   285.56973      61101.43       81589.581     -17786.617      790.24438     -1194959.6      1481.0552    
   1188000   285.60404      61219.281      81506.914     -17842.968      738.46856     -1195117.8      1540.234     
   1189000   286.23757      60713.928      81516.926     -17952.525      788.74258     -1195720        1640.3983    
   1190000   285.58578      61260.627      81516.198     -17897.84       782.69913     -1195672.1      1621.9574    
   1191000   287.02819      61070.622      81283.998     -17807.62       780.10278     -1195453.2      1802.1852    
   1192000   287.33851      61105.692      81470.628     -17782.325      810.42762     -1195445.1      1682.0132    
   1193000   285.78713      61388.547      81640.71      -17887.404      788.09496     -1195329        1742.9369    
   1194000   285.30367      61335.269      81236.422     -17806.227      788.0018      -1195343.9      1503.8233    
   1195000   285.07309      60765.87       81883.493     -17871.921      798.5091      -1195332.2      1566.4013    
   1196000   286.21282      61244.957      81465.383     -18024.018      768.88267     -1195362.7      1901.8878    
   1197000   286.2841       61520.143      81205.984     -17971.992      804.8101      -1195209.2      1681.1217    
   1198000   286.7575       61388.495      81001.994     -17832.015      741.01348     -1195992.7      1580.5012    
   1199000   284.95349      61429.689      81229.843     -17788.342      786.81196     -1195511.4      1673.5092    
   1200000   286.03529      60987.881      81305.995     -17828.391      810.84006     -1195890.8      1709.7306    
   1201000   284.35561      61560.255      81071.523     -17871.208      803.31309     -1195296.1      1786.696     
   1202000   286.22294      61277.688      81529.235     -17916.798      792.23818     -1195246.6      1572.8796    
   1203000   287.23499      61319.861      81736.562     -17764.16       760.32507     -1195245.5      1749.4352    
   1204000   286.43161      61142.197      81449.088     -18030.059      751.00804     -1195539.2      1924.1159    
   1205000   286.99797      61199.304      81088.801     -17866.308      789.39997     -1195423.3      1760.5703    
   1206000   285.91969      61340.502      81117.753     -17911.141      793.85325     -1195323.1      1832.0796    
   1207000   286.30426      61203.52       81452.39      -17792.201      808.08537     -1195513.1      1661.6986    
   1208000   286.8962       61354.254      81527.961     -17842.264      755.14601     -1195126.7      1503.0834    
   1209000   285.68089      61302.706      81565.215     -17855.975      784.50223     -1194948.4      1680.6867    
   1210000   284.82379      61045.101      81102.952     -17891.127      782.02836     -1195073.2      1955.6182    
   1211000   285.6915       60980.229      81186.614     -17810.108      767.1104      -1195660.3      1625.4215    
   1212000   286.17159      61341.353      81364.213     -17821.301      775.13868     -1195237.9      1468.3343    
   1213000   286.43442      60956.143      81302.407     -17865.479      774.38545     -1195543.2      1636.251     
   1214000   285.56305      60938.038      81219.176     -17928.157      764.25995     -1195404.7      1803.4301    
   1215000   286.01063      61257.161      81553.03      -17929.579      809.0169      -1194905.4      1750.6971    
   1216000   287.68677      61084.357      81469.307     -17961.917      809.47393     -1195793.7      1646.9653    
   1217000   286.20558      61162.844      81240.557     -17938.242      797.39784     -1195574.1      1677.6828    
   1218000   285.70272      61178.497      81351.423     -17903.548      765.79121     -1195455.8      1658.348     
   1219000   285.58226      61481.434      81218.028     -17783.434      801.41237     -1195344.2      1521.1845    
   1220000   287.41836      61119.129      81375.726     -17876.812      783.72268     -1195623.9      1638.8626    
   1221000   286.03202      61086.108      81414.244     -17896.172      761.36933     -1195887.1      1610.638     
   1222000   287.05933      61564.52       81116.028     -17794.422      796.89782     -1194962.8      1594.5964    
   1223000   286.59105      61476.986      81397.708     -17825.831      799.59793     -1195222.1      1573.3534    
   1224000   287.26863      60798.965      81812.115     -17835.531      799.92613     -1195761        1509.7833    
   1225000   286.96725      60912.866      81253.18      -17755.899      797.08665     -1195530.3      1596.238     
   1226000   285.78539      61090.125      81474.368     -18008.464      823.5023      -1195226.5      1866.2055    
   1227000   286.96488      60803.565      81311.254     -17999.425      799.96788     -1196047.3      1824.1136    
   1228000   286.28796      60722.749      81275.171     -17854.414      789.34043     -1195953.2      1770.6765    
   1229000   286.09673      61193.589      81163.566     -17931.173      792.97706     -1195726.6      1534.067     
   1230000   286.95884      61520.131      81525.374     -17832.417      819.96812     -1195161.1      1645.3237    
   1231000   286.71784      60781.495      81370.375     -17855.016      778.73734     -1195623.6      1817.3281    
   1232000   285.06261      61073.708      81391.678     -18032.034      777.4769      -1195780.7      1399.9149    
   1233000   285.43083      61183.897      81165.891     -17956.266      747.42344     -1195319.5      1791.3622    
   1234000   286.24554      61094.425      81335.432     -17952.349      761.21958     -1195321.4      1699.6098    
   1235000   285.74231      61145.879      81070.679     -17889.841      781.12998     -1195294.5      1814.9717    
   1236000   284.89081      61191.043      81331.328     -17955.559      782.75107     -1195404.4      1717.9014    
   1237000   285.9256       61301.277      81481.939     -18003.262      797.35075     -1195605.1      1758.9022    
   1238000   285.93543      61153.487      81819.063     -17998.661      800.50116     -1195403.3      1733.4042    
   1239000   285.52857      61429.023      81324.57      -17859.281      819.06656     -1195199.9      1521.9618    
   1240000   285.99551      60866.836      81393.639     -17997.661      833.69834     -1195928        1702.7967    
   1241000   285.97558      61145.714      81099.532     -17912.045      830.81697     -1195649.6      1621.59      
   1242000   286.82459      60969.91       81307.825     -17846.626      790.42568     -1195837.5      1785.1715    
   1243000   284.69535      60713.783      81138.548     -17894.761      776.71314     -1196004.2      1834.081     
   1244000   286.47549      61382.276      81599.405     -17958.437      788.64443     -1195404        1652.8189    
   1245000   287.09435      61202.437      81413.31      -17872.586      773.68703     -1195514.4      1572.5295    
   1246000   287.17654      60880.394      81399.259     -17914.538      788.51493     -1196097.9      1597.199     
   1247000   285.49787      61285.398      81368.539     -17851.312      801.2932      -1195312.2      1824.6557    
   1248000   285.28521      60862.326      81511.08      -17838.895      759.68855     -1195288.1      1683.2632    
   1249000   285.94147      61183.539      81327.501     -17937.86       792.14961     -1195376.5      1706.1583    
   1250000   285.21333      60999.846      81172.578     -17958.831      796.93756     -1195757.3      1651.8489    
   1251000   286.1589       61449.184      81513.699     -18042.771      773.19551     -1195429.5      1608.406     
   1252000   285.28865      61108.598      81293.751     -17958.61       823.59104     -1195664.4      1639.0513    
   1253000   286.21357      60956.745      81357.74      -17978.528      782.69218     -1195436.9      1641.6491    
   1254000   286.43192      60952.646      81213.263     -18030.201      778.19793     -1195491.5      1721.4242    
   1255000   285.9537       61105.251      81377.191     -18038.405      764.20601     -1195343.7      1766.1342    
   1256000   285.65701      60961.55       81545.489     -18008.169      764.9613      -1195597.6      1810.0156    
   1257000   284.79935      60669.436      81238.784     -17943.691      780.00467     -1195755.2      1688.9922    
   1258000   285.45075      61134.44       81504.895     -18059.207      768.66669     -1195455.3      1485.0481    
   1259000   286.37129      61366.072      81400.105     -17888.012      788.5351      -1195391.6      1651.7989    
   1260000   285.85324      60862.693      81207.537     -17878.437      795.31436     -1195372.4      1442.3089    
   1261000   286.01253      61252.536      81407.465     -17927.425      789.19565     -1195363.6      1585.413     
   1262000   285.78182      61149.927      81534.997     -17849.363      791.65789     -1195583.5      1581.2433    
   1263000   285.79059      60834.762      81419.794     -17959.924      800.98946     -1196141.7      1340.3396    
   1264000   285.82163      61194.876      81163.056     -18028.78       777.08314     -1195951.2      1663.1464    
   1265000   285.944        61234.126      81127.945     -17970.062      771.30172     -1195497.3      1499.2179    
   1266000   287.09139      61111.08       81199.551     -17905.235      765.21994     -1195806        1652.0173    
   1267000   287.40869      61296.576      81422.725     -17907.375      779.77319     -1195498.6      1730.6655    
   1268000   286.79138      61226.947      81177.944     -17972.21       791.50939     -1195738.1      1694.6536    
   1269000   286.38938      61418.778      81556.618     -17923.513      807.90928     -1195365        1464.7187    
   1270000   286.19267      61431.506      81512.762     -17976.565      795.78857     -1195095.8      1520.8082    
   1271000   285.1191       61309.004      81242.161     -18088.271      762.51004     -1195133.8      1882.9419    
   1272000   285.69348      61293.429      80891.99      -17941.27       782.18853     -1195360.5      1751.724     
   1273000   286.3088       61077.888      81059.499     -18047.6        819.45408     -1195997.9      1716.529     
   1274000   288.01826      61310.295      81149.009     -17920.645      791.32797     -1195218.3      1756.8934    
   1275000   286.12994      60736.522      81821.601     -18106.507      792.4529      -1195693.4      1705.9608    
   1276000   286.82108      61185.858      81494.759     -17971.316      821.02768     -1195362.4      1840.2626    
   1277000   285.89796      61642.805      81623.733     -18054.684      808.22594     -1195062.3      1795.1746    
   1278000   287.14321      61004.969      81477.215     -17847.923      793.77012     -1195695.1      1710.2652    
   1279000   285.10595      60852.253      81744.333     -18033.202      792.66961     -1195861.5      1618.182     
   1280000   286.82048      60940.261      81574.297     -17934.716      803.37134     -1195980.2      1219.9925    
   1281000   286.34174      61199.926      81345.901     -18114.947      796.20105     -1195577.9      1679.3028    
   1282000   286.09036      61598.716      81317.919     -18024.676      822.12964     -1195420.8      1823.7761    
   1283000   285.27218      60802.716      81218.459     -17988.031      758.64135     -1195917.4      1800.7588    
   1284000   284.82567      61603.798      81180.997     -18054.359      775.26775     -1195536        1796.684     
   1285000   287.16296      61127.183      81516.633     -17994.646      775.7384      -1195633.1      1458.1056    
   1286000   286.43056      61171.792      80776.266     -17867.878      800.2757      -1195627.2      1751.6064    
   1287000   286.69056      61381.712      81119.541     -17898.522      788.72152     -1195806.3      1559.9989    
   1288000   285.94079      61127.816      81697.161     -18034.445      772.00163     -1195252.3      1475.7178    
   1289000   286.59842      61270.933      81123.936     -18051.702      768.68551     -1195550.5      1674.1553    
   1290000   285.90432      61099.034      81061.697     -17906.694      774.89809     -1196244.7      1745.764     
   1291000   285.58246      61022.912      81191.547     -18022.209      771.21299     -1195889.9      1910.7129    
   1292000   285.62425      61094.885      81497.21      -17980.417      793.0559      -1195861.6      1780.391     
   1293000   285.85418      60891.071      81324.425     -17981.837      783.26116     -1195734.4      1706.1408    
   1294000   286.35818      60932.748      81701.655     -17908.813      750.9565      -1195508.4      1773.965     
   1295000   285.83323      61225.185      81405.375     -18051.494      754.20503     -1195185.5      1877.5785    
   1296000   286.52864      61081.563      81483.989     -18044.494      788.69713     -1195525.7      1782.0683    
   1297000   286.02775      61160.979      81090.166     -18012.085      800.69368     -1195742.8      1537.0456    
   1298000   286.40537      60904.354      81522.439     -18018.594      783.84211     -1195815.9      1716.8199    
   1299000   286.70618      61210.077      81233.091     -18022.599      766.08356     -1195845.4      1728.3596    
   1300000   286.61712      60947.681      81790.739     -17952.294      779.51052     -1195331.3      1659.003     
   1301000   286.75399      61366.676      81617.379     -18148.926      782.98227     -1195176.2      1707.7429    
   1302000   285.50162      60850.144      81446.911     -17888.68       731.89776     -1195729.7      1757.488     
   1303000   285.33736      61168.803      81462.956     -17986.327      828.55467     -1195828        1539.1875    
   1304000   287.33435      61058.3        81215.449     -17887.512      776.25032     -1195639.5      1673.0549    
   1305000   285.39298      61655.852      81439.866     -17999.938      792.11272     -1195647.7      1581.0683    
   1306000   285.09137      61305.816      81040.073     -18030.601      755.27101     -1195810.2      1714.0752    
   1307000   286.52377      60896.871      81321.55      -18008.413      779.54506     -1195643.5      1640.0619    
   1308000   286.89841      61263.032      81205.932     -17996.996      804.62541     -1195729.1      1634.2126    
   1309000   285.15597      61209.52       81233.064     -17937.189      761.92958     -1195590.4      1589.3821    
   1310000   285.48561      61230.656      81091.41      -18116.142      787.74162     -1195818.7      1569.9964    
   1311000   286.55912      61248.927      81218.809     -17997.593      763.67222     -1195618.3      1790.462     
   1312000   285.83693      61371.911      81399.373     -18028.766      789.65591     -1195816.3      1776.0598    
   1313000   284.15774      61097.074      81413.035     -17940.654      796.83145     -1195468.7      1803.1184    
   1314000   285.76312      61186.662      81509.742     -18064.293      757.39014     -1195598.9      1780.8698    
   1315000   286.64667      61285.915      81439.527     -18070.106      754.03236     -1195828.4      1787.6277    
   1316000   286.20028      61277.759      81354.702     -18129.401      778.12938     -1195600.3      1632.9795    
   1317000   287.43083      61199.775      81177.358     -17969.183      774.30356     -1195648.6      1663.7125    
   1318000   286.54627      61282.636      81383.289     -17918.674      796.09721     -1195589.6      1716.344     
   1319000   286.50393      60581.691      81623.394     -17983.969      785.72938     -1195853.2      1953.941     
   1320000   286.11901      60926.72       81329.715     -18061.883      801.74356     -1195791.5      1792.8502    
   1321000   286.12837      61139.728      81659.382     -18057.316      817.4927      -1195572.4      1743.4393    
   1322000   285.94819      61521.299      81327.613     -18051.749      819.86005     -1195430.1      1575.8867    
   1323000   285.89928      60616.584      81572.484     -18074.944      745.49244     -1195960.1      1609.008     
   1324000   285.68764      61350.924      81397.701     -18028.295      803.41685     -1195570.8      1388.1663    
   1325000   286.09059      60901.986      81251.371     -18135.924      765.79336     -1195637        1713.0675    
   1326000   286.01362      61031.634      81279.953     -18081.334      800.66519     -1195993.5      1661.7461    
   1327000   286.78495      61233.78       81406.669     -18048.794      811.57344     -1194975        1738.4411    
   1328000   287.8628       61174.364      81053.012     -18078.398      765.27097     -1195659.9      1637.7786    
   1329000   286.95767      61026.261      81238.584     -18040.161      798.9551      -1195606        1649.315     
   1330000   286.5498       60922.413      81183.12      -18032.279      782.39121     -1195893.2      1860.2688    
   1331000   286.3785       61123.727      81498.742     -18017.873      765.95889     -1195234.1      1754.1919    
   1332000   287.18513      61535.267      81621.444     -17993.289      760.48215     -1195306.8      1680.6439    
   1333000   285.89605      61150.626      81596.339     -18118.413      805.66259     -1195500.1      1460.9177    
   1334000   286.01292      61088.032      80756.867     -18001.916      773.1585      -1195580.7      1783.2339    
   1335000   285.09304      61149.637      81521.264     -18057.622      834.21014     -1195679.8      1789.6885    
   1336000   285.1216       61060.949      81463.386     -17934.626      793.64521     -1195637.8      1403.4244    
   1337000   287.54906      60935.556      81269.324     -18008.108      791.7963      -1195732        1493.0805    
   1338000   287.06541      61268.817      81627.686     -18033.402      807.78879     -1195719.8      1432.1194    
   1339000   286.36296      61228.305      81558.366     -18016.735      742.39949     -1195520.9      1583.5936    
   1340000   286.84492      61240.58       81198.048     -18085.583      758.4258      -1195842.4      1680.5655    
   1341000   285.96618      61148.417      81432.933     -18032.368      774.18607     -1195528        1835.9279    
   1342000   285.66289      61173.606      81256.404     -17965.59       762.18861     -1195885.2      1593.0845    
   1343000   285.48611      60684.131      81311.959     -18020.218      793.84048     -1195952.4      1646.8327    
   1344000   287.73567      61024.557      81080.574     -18025.503      752.60334     -1196220.9      1744.6715    
   1345000   286.58135      61044.602      81233.413     -18209.063      755.18117     -1195640.1      1580.5792    
   1346000   286.15181      60924.126      81461.062     -18051.71       740.44056     -1195821        1715.8338    
   1347000   285.46183      61211.553      81289.048     -18096.371      761.83265     -1196006.7      1669.3432    
   1348000   285.92096      61114.368      81282.543     -18034.55       760.4195      -1195758.8      1814.039     
   1349000   286.80796      61223.229      81262.033     -17930.42       771.71603     -1195621.5      1445.8573    
   1350000   287.18641      61181.561      81457.31      -18016.902      780.52732     -1195593.1      1620.2619    
   1351000   285.55062      61454.528      81393.216     -18084.469      767.85485     -1195491.7      1542.4639    
   1352000   285.18138      61147.313      81145.403     -18044.443      736.48125     -1195968.4      1654.0606    
   1353000   286.03482      60920.79       81413.537     -17962.851      776.8516      -1195589.5      1457.3367    
   1354000   286.65502      61687.609      81382.863     -18118.528      776.63095     -1195492.4      1801.8908    
   1355000   286.07927      60953.694      81333.89      -17957.569      804.58977     -1195324.3      1779.8966    
   1356000   286.00954      61024.218      81503.768     -18055.497      791.00141     -1195728.8      1716.7288    
   1357000   286.34114      60908.68       81027.208     -17973.94       802.19079     -1195853.4      1614.6074    
   1358000   286.87385      61538.848      81137.803     -18076.986      812.00745     -1195666.3      1898.8612    
   1359000   286.25228      60788.74       81172.464     -17973.77       826.97235     -1194997.4      1598.7569    
   1360000   286.60899      61241.495      81106.866     -18085.243      800.89393     -1195495.8      1889.5376    
   1361000   286.46829      61191.547      81384.433     -18043.18       762.83013     -1195790.1      1615.6213    
   1362000   286.28744      60865.826      81424.3       -18141.037      819.79006     -1195703.2      1776.4962    
   1363000   286.6544       61111.438      81179.8       -18064.945      783.508       -1195676        1757.0929    
   1364000   285.48784      60964.558      81147.26      -18027.033      749.73229     -1195891.6      1647.6212    
   1365000   284.57595      61095.567      81326.781     -18087.669      780.67806     -1195937.3      1839.0604    
   1366000   287.75987      61082.906      81107.387     -18105.279      782.18886     -1196003        1610.7736    
   1367000   286.28152      61092.56       81240.732     -18049.113      801.81982     -1195834        1666.0787    
   1368000   285.83881      61198.542      81365.261     -18020.148      775.09005     -1195666.8      1863.8238    
   1369000   285.74677      61196.313      81272.93      -17896.446      808.30173     -1195374.5      1667.1807    
   1370000   287.08013      61092.05       81377.812     -18029.24       780.31441     -1195754        1686.3768    
   1371000   285.4974       61219.574      81375.218     -18011.576      793.40352     -1195763.9      1457.2315    
   1372000   286.39626      60920.695      81502.08      -17962.787      775.81289     -1195040.7      1666.674     
   1373000   288.61707      61048.663      81358.968     -18112.154      771.80042     -1195887.5      1942.1717    
   1374000   286.44892      61224.492      81348.393     -18033.107      805.58829     -1195685.8      1868.2701    
   1375000   285.25241      61124.628      81356.79      -18138.426      786.73084     -1195796.5      1834.7954    
   1376000   286.04316      60996.955      81328.889     -17964.157      767.55754     -1195628        1636.3137    
   1377000   287.01932      61459.127      81332.436     -18156.494      810.40603     -1195589.3      1463.9938    
   1378000   286.14625      61145.494      81278.623     -18035.751      788.11276     -1195431        1785.033     
   1379000   285.9378       60944.501      81407.147     -18066.531      773.83975     -1195758.8      1654.9304    
   1380000   285.9201       61327.665      81325.934     -18092.755      758.71977     -1195827        1516.6268    
   1381000   287.06028      61740.186      81194.655     -18021.97       783.51329     -1195587.6      1433.4522    
   1382000   287.98324      61047.579      81232.098     -17969.869      818.35122     -1195961.5      1640.9323    
   1383000   286.90059      60836.126      81560.331     -18084.177      772.54669     -1196030.5      1722.5273    
   1384000   286.61972      61149.972      81373.606     -17928.895      794.98299     -1195416.7      1520.6274    
   1385000   286.38033      61180.945      81193.496     -18009.615      755.8516      -1195853.7      1731.6735    
   1386000   286.49379      61087.557      81165.389     -18113.302      787.01975     -1196244.7      1477.7881    
   1387000   285.20689      61191.858      81088.633     -17862.728      771.8592      -1196114.2      1554.0684    
   1388000   284.75554      61528.111      81361.326     -18076.735      770.06946     -1195752.1      1360.6875    
   1389000   285.90828      61192.879      81198.966     -18024.869      753.10455     -1195291.8      1408.9476    
   1390000   285.7507       61432.926      81188.892     -17955.025      779.81791     -1195498.6      1762.48      
   1391000   286.13557      61008.473      81215.091     -18103.414      774.96447     -1195692.5      1577.5297    
   1392000   285.87941      61405.706      81401.45      -18148.451      775.72273     -1195590.7      1640.0649    
   1393000   285.34582      60855.716      81028.346     -18046.031      754.06208     -1196011.6      1692.2329    
   1394000   286.96612      61236.167      81266.114     -18045.553      769.27439     -1195493.3      1821.3716    
   1395000   286.22492      61169.684      81298.741     -18074.698      820.26595     -1195147        1776.9922    
   1396000   286.35154      61135.581      81074.168     -18070.198      801.38996     -1195963.6      1438.721     
   1397000   285.99954      61219.309      81280.252     -18083.217      773.29085     -1195633.7      1689.3885    
   1398000   286.01388      60985.617      81127.823     -18124.354      812.18502     -1196118.8      1541.7648    
   1399000   285.75039      60523.512      81219.09      -18107.538      818.64559     -1196293.3      1725.743     
   1400000   286.98497      61124.665      81194.826     -17987.597      815.52264     -1195825.8      1505.2669    
   1401000   286.78977      60655.523      81301.185     -18123.926      796.9253      -1195813.3      1638.5855    
   1402000   287.46451      61155.504      81594.259     -18008.957      783.77214     -1195380.9      1755.3975    
   1403000   287.00253      60938.01       81180.714     -17925.923      736.75327     -1195817.5      1680.8412    
   1404000   286.2724       61295.243      81108.109     -18124.678      801.21241     -1195755.6      1720.8866    
   1405000   285.82399      61204.594      81298.025     -18181.319      782.05238     -1196099.5      1700.4622    
   1406000   287.45847      61007.178      81282.848     -18047.447      800.13762     -1195795.1      1781.9593    
   1407000   286.89175      61221.394      81448.253     -18089.16       805.54783     -1195632.6      1869.5221    
   1408000   285.81375      60716.74       81432.902     -18017.98       804.30549     -1195783.9      1678.2173    
   1409000   286.02338      61020.223      81077.626     -17998.203      795.30749     -1195832.9      1672.3416    
   1410000   287.45551      60752.903      81415.525     -18050.747      748.79246     -1195756.5      1697.5057    
   1411000   286.95989      60923.219      81320.517     -17989.772      801.78244     -1195729.6      1645.3152    
   1412000   287.58088      61172.611      81401.732     -18223.775      849.79981     -1195528.3      1785.6038    
   1413000   286.38595      61015.303      81317.791     -18134.153      821.70837     -1195588.2      1862.1763    
   1414000   286.1873       60788.292      81694.438     -18042.289      805.32417     -1195819.6      1864.9503    
   1415000   286.65537      60984.501      81489.931     -17958.106      808.99614     -1195640.4      1489.1716    
   1416000   286.50081      60753.656      81404.605     -18177.598      820.73459     -1195894.3      1742.4147    
   1417000   285.79109      61051.675      81024.978     -18184.588      752.85605     -1195918        1660.2783    
   1418000   286.05882      61214.673      81309.451     -18162.684      776.25613     -1195817.1      1689.399     
   1419000   286.5116       61216.583      81271.505     -18139.797      789.98533     -1195402.8      1910.76      
   1420000   286.08958      61380.926      81471.085     -18202.352      776.18948     -1195404.5      1744.0064    
   1421000   286.05769      61037.329      81408.313     -18075.076      765.34897     -1195865.9      1737.1755    
   1422000   285.33197      60912.19       81576.563     -18167.685      785.92191     -1196142.6      1594.1764    
   1423000   286.44431      61239.634      81273.242     -18128.482      786.09986     -1196008.5      1716.0683    
   1424000   286.53849      61161.376      81322.855     -18124.296      764.25282     -1196098.9      1732.2035    
   1425000   285.21163      61358.443      81417.548     -18295.576      764.37617     -1195945.9      1527.2053    
   1426000   286.11068      61261.376      81307.765     -18167.091      784.87541     -1195828        1438.0376    
   1427000   285.99908      60864.331      81442.494     -18173.185      805.67759     -1195998.4      1666.1578    
   1428000   285.89887      60772.083      81588.389     -18197.47       822.60198     -1195777.2      1647.6554    
   1429000   285.84255      61341.228      81369.884     -18206.913      810.60279     -1195851        1877.8712    
   1430000   284.76453      61092.086      81392.397     -18110.92       798.52028     -1195749.1      1590.666     
   1431000   286.22422      60975.068      81133.618     -18190.48       775.56823     -1196041.8      1650.8459    
   1432000   284.62964      60936.108      81233.329     -18159.322      794.60228     -1195947.7      1594.3522    
   1433000   286.36959      61061.284      81192.088     -18057.859      783.86528     -1196003.4      1642.6326    
   1434000   286.99686      61126.727      81239.383     -18069.083      768.89936     -1195976.5      1738.2982    
   1435000   286.29472      61145.175      80817.265     -18144.216      803.23663     -1196031.3      1706.7131    
   1436000   286.68256      60600.973      81180.75      -18066.271      795.78053     -1196102.1      1797.1968    
   1437000   286.29081      61129.389      81290.109     -18148.024      807.12041     -1195727.2      1576.3429    
   1438000   286.4642       61272.865      81496.768     -18138.899      794.08988     -1195505.9      1882.2814    
   1439000   286.46693      61185.528      81108.231     -18162.423      780.52749     -1195958.1      1524.1285    
   1440000   287.50431      60994.409      81153.109     -18067.01       807.77348     -1195707.3      1487.6083    
   1441000   286.67388      61115.914      81199.499     -18233.521      785.43954     -1195944        1748.3773    
   1442000   285.99401      60913.915      81245.56      -18037.878      774.23814     -1195799.3      1632.6111    
   1443000   285.91683      61169.557      81239.495     -18034.135      792.23562     -1195701.1      1425.1705    
   1444000   287.82839      61137.504      81147.495     -18182.561      769.651       -1195799.4      1789.6334    
   1445000   287.29553      61318.469      81416.402     -18239.781      788.93755     -1195622.4      1744.2474    
   1446000   286.35532      61256.421      81266.39      -18135.732      782.61652     -1195692.1      1742.2957    
   1447000   286.69586      61089.839      81188.518     -18015.392      741.75063     -1195908.2      1767.0186    
   1448000   286.0213       61076.357      81744.391     -18116.277      785.28052     -1195892.8      1614.0035    
   1449000   286.26722      60923.911      81480.771     -18100.384      779.17232     -1195608.2      1807.1919    
   1450000   284.9322       60833.739      81304.724     -18255.685      770.89393     -1195724.1      1619.1452    
   1451000   285.62674      61020.358      81206.761     -18164.717      786.75336     -1195987.8      1729.8873    
   1452000   286.25871      61003.64       81257.687     -18309.045      746.72431     -1195911.8      1553.5941    
   1453000   286.27551      60749.104      81194.487     -18186.324      776.14356     -1195660.6      1800.0106    
   1454000   287.46717      60896.867      81396.775     -18173.972      808.94525     -1195422.5      1687.1205    
   1455000   286.279        60851.974      81135.66      -18195.046      768.59691     -1196458.9      1758.3519    
   1456000   287.18506      60752.693      81187.646     -18137.286      778.29744     -1196099.7      1739.3374    
   1457000   287.77276      61114.874      81426.938     -18277.858      778.8462      -1195898.3      1503.5871    
   1458000   286.51387      60768.404      81352.116     -18137.966      766.57215     -1195804        1648.1847    
   1459000   285.71546      61271.954      81239.611     -18154.485      752.94507     -1195715.6      1751.8596    
   1460000   285.08706      61032.628      81181.352     -18094.61       748.56487     -1195845.3      1736.1519    
   1461000   284.85387      61005.724      81176.925     -18047.186      777.84751     -1195647.2      1424.4991    
   1462000   285.9108       61138.921      81204.881     -18060.713      803.40396     -1195395.9      1711.4614    
   1463000   287.65288      61381.196      81355.574     -18162.353      784.81261     -1195692.6      1616.6729    
   1464000   285.48445      60718.91       81476.787     -18063.435      783.33539     -1195869.5      1664.8453    
   1465000   286.57433      61071.387      81131.802     -18151.314      786.15847     -1196148.9      1578.5157    
   1466000   285.39694      60809.461      81185.871     -18078.58       748.06139     -1195885.1      1531.365     
   1467000   285.92067      60969.719      81327.371     -18231.035      758.79276     -1195668.5      1746.3365    
   1468000   286.15131      61308.05       80855.983     -18028.972      794.47305     -1195758.5      1627.4993    
   1469000   286.69121      61407.262      81111.802     -18183.772      777.58076     -1195437.9      1714.347     
   1470000   285.48999      61074.542      81347.491     -18118.788      791.75262     -1195519.9      1838.7911    
   1471000   286.08887      61007.008      81296.997     -18129.692      742.54339     -1195814.9      1617.3124    
   1472000   285.65051      61197.207      81185.024     -18106.91       767.91842     -1195801.7      1774.167     
   1473000   287.75341      60919.64       81275.125     -18073.242      795.24253     -1195721.9      1566.5102    
   1474000   286.76848      61122.36       81535.705     -18234.833      792.78353     -1195896.5      1706.2308    
   1475000   286.56781      61029.005      81020.516     -18145.726      785.66511     -1195806.4      1905.3922    
   1476000   285.78807      60937.948      81106.777     -17964.301      807.66538     -1195638.7      1687.1244    
   1477000   286.50543      60965.979      81605.276     -18153.089      802.77632     -1195703.6      1499.8257    
   1478000   286.98709      60916.298      81313.6       -18156.994      813.78699     -1195945        1592.8809    
   1479000   285.34424      60841.489      81223.244     -18118.173      793.07359     -1196101.5      1476.4057    
   1480000   287.0707       61302.91       81376.785     -18079.481      745.17728     -1195403.4      1645.9022    
   1481000   285.56157      61196.466      81533.465     -18126.348      796.60816     -1195417.7      1795.9029    
   1482000   285.71043      61345.31       81054.924     -18144.405      794.58514     -1195575.4      1483.0092    
   1483000   286.23271      60800.502      81448.675     -18226.411      775.79729     -1196166.3      1579.9045    
   1484000   285.05601      60893.359      81355.644     -18128.784      797.90683     -1195622.2      1609.0182    
   1485000   285.35791      60977.532      81096.628     -18047.77       767.5444      -1196174.3      1655.8786    
   1486000   286.41054      60785.371      81301.962     -18172.278      817.92956     -1195982.7      1793.217     
   1487000   286.0418       61262.117      81242.358     -18199.673      809.33744     -1196031.5      1637.9686    
   1488000   285.91075      60936.801      81382.291     -18230.677      791.01572     -1195747.1      1762.1307    
   1489000   285.96821      61267.332      81009.498     -18110.516      794.78238     -1195570.9      1704.9307    
   1490000   287.00294      61227.529      81229.754     -18239.704      775.50531     -1195984.2      1666.0908    
   1491000   286.27927      60966.403      81246.418     -18077.113      793.08692     -1195654        1738.7526    
   1492000   286.67863      60977.296      81214.695     -18105.347      829.34633     -1195926.4      1773.0167    
   1493000   286.77239      60828.731      81095.974     -18181.767      771.31706     -1196154.3      1703.1945    
   1494000   286.93355      60818.598      81036.779     -18160.166      791.8133      -1196315.4      1682.6583    
   1495000   285.69899      61170.747      81192.852     -18050.018      803.32719     -1195764.8      1577.1685    
   1496000   286.89765      61257.643      81473.129     -18178.81       777.2204      -1195459.9      1670.44      
   1497000   285.06025      60929.228      81289.647     -18165.081      778.227       -1195794.7      1580.4193    
   1498000   285.82549      61089.076      81413.59      -18201.715      805.1899      -1195949.5      1580.4059    
   1499000   285.68924      61084.921      81451.966     -18138.937      820.09997     -1195355.6      1547.2414    
   1500000   285.93605      61444.191      81369.77      -18280.274      791.0913      -1195629.8      1626.4995    
   1501000   287.05682      61118.766      81304.775     -18119.152      772.49099     -1195608.9      1582.645     
   1502000   286.37464      60949.256      81407.403     -18231.836      760.18571     -1195648.4      1616.5897    
   1503000   286.16456      60908.395      81338.491     -18200.708      793.05698     -1195970.7      1700.5143    
   1504000   286.43469      61054.636      81464.628     -18150.196      809.85605     -1195690.1      1711.3625    
   1505000   286.49507      60642.88       81299.863     -18116.931      792.1223      -1195878.7      1624.4895    
   1506000   286.69787      61143.897      81576.043     -18280.048      766.06252     -1195582.8      1425.3999    
   1507000   287.41882      61119.803      81339.656     -18210.934      778.0055      -1195687.8      1560.9711    
   1508000   286.09512      60947.711      81328.294     -18344.854      787.87989     -1195841        1975.0932    
   1509000   285.3249       61100.859      81205.555     -18097.404      755.05356     -1195717.3      1893.6344    
   1510000   287.53178      61089.998      81669.987     -18135.169      762.2734      -1195779.9      1886.8133    
   1511000   286.26852      61271.016      81245.106     -18219.246      765.84246     -1195651.1      1668.7261    
   1512000   286.50027      60876.33       81464.482     -18272.829      761.62331     -1195834.3      1513.411     
   1513000   286.30362      61105.395      81178.879     -18278.416      807.3654      -1195770.3      1618.5081    
   1514000   285.07987      61064.367      81630.567     -18212.735      792.10288     -1195724.1      1742.8356    
   1515000   286.05839      61291.954      81361.302     -18284.02       800.33085     -1195706.2      1844.805     
   1516000   286.89211      61348.026      81322.242     -18172.046      786.10181     -1195320.3      1400.3163    
   1517000   286.20487      61237.883      81214.792     -18058.746      778.30226     -1195660.7      1832.4477    
   1518000   285.97566      60837.989      81093.945     -18072.5        777.59189     -1196068.5      1617.1946    
   1519000   286.43332      61023.907      81451.043     -18075.166      792.5914      -1195827.6      1684.7935    
   1520000   285.26589      61023.515      81602.791     -18228.287      808.60506     -1195491.8      1611.8844    
   1521000   285.31414      60991.45       81158.545     -18175.766      791.18502     -1195878.7      1748.2063    
   1522000   286.554        60953.797      81103.849     -18182.079      817.72194     -1195747.9      1703.6532    
   1523000   286.05263      61228.148      81388.112     -18165.913      779.72728     -1195851.9      1675.5114    
   1524000   285.61837      60980.059      81460.271     -18064.044      780.04092     -1195878.3      1636.5651    
   1525000   285.38559      60719.105      81270.322     -18161.579      782.12545     -1195915.8      1536.8015    
   1526000   285.59192      60774.184      81465.226     -18158.659      777.7925      -1195861.3      1741.7656    
   1527000   285.60781      60817.355      81373.974     -18205.903      777.34066     -1195386.6      1655.6243    
   1528000   286.27752      61126.809      81150.337     -18208.059      786.66964     -1195774.6      1801.1458    
   1529000   285.80948      61056.114      81172.696     -18079.383      773.88838     -1196064        1638.4338    
   1530000   285.73348      61203.901      81339.64      -18128.008      800.41089     -1195692.1      1808.7518    
   1531000   286.21459      60946.479      81380.09      -18189.193      786.71828     -1195845        1773.2638    
   1532000   286.92132      61079.253      81105.325     -18080.705      813.00523     -1196331.7      1616.359     
   1533000   287.59389      60862.093      81571.112     -18210.555      792.37067     -1195613.8      1969.3819    
   1534000   287.5168       61052.358      81272.024     -18067.304      742.50528     -1195777.5      1430.9424    
   1535000   285.3775       60933.481      81457.802     -18126.27       808.79909     -1195514        1808.3403    
   1536000   285.82883      61002.267      81358.311     -18143.291      802.53721     -1195841.4      1910.3658    
   1537000   286.22053      61231.828      81193.245     -18065.637      776.24394     -1195571.4      1646.688     
   1538000   284.7104       61100.897      81111.872     -18237.388      781.29809     -1196068.2      1884.0628    
   1539000   284.90045      61321.285      81212.701     -18190.807      790.23063     -1195344.6      1794.1272    
   1540000   286.15928      60876.038      81402.693     -18369.91       806.23302     -1195871.7      1904.9407    
   1541000   286.25363      60921.921      81304.426     -18144.895      771.53443     -1196151.8      1771.9607    
   1542000   285.84901      60885.254      81420.91      -18128.642      784.27867     -1195686        1649.5531    
   1543000   286.77888      60922.785      81455.384     -18125.5        760.2934      -1195717.4      1698.277     
   1544000   285.80265      61090.947      81342.335     -18158.191      800.7681      -1195984.9      1596.4173    
   1545000   287.05494      60791.607      81172.099     -18122.546      745.149       -1195981.5      1811.5663    
   1546000   285.88446      61036.381      81205.326     -18175.82       771.42469     -1195767.9      1657.6313    
   1547000   287.91079      61116.607      81446.048     -18145.746      756.84604     -1195885        1498.1439    
   1548000   286.72511      61322.904      81199.41      -18239.809      775.00322     -1195308.6      1786.795     
   1549000   286.41717      60914.724      81548.014     -18161.911      761.7442      -1195578.7      1839.2417    
   1550000   285.35424      61249.729      81262.051     -18154.948      773.2112      -1195476.2      1596.8726    
   1551000   286.90528      61079.495      80920.335     -18148.116      776.13121     -1196034.4      1659.1298    
   1552000   285.50365      60644.547      81605.801     -18226.088      771.4125      -1195842.7      1811.7613    
   1553000   285.74521      60613.619      81326.187     -18109.517      782.60004     -1196200.9      1747.8624    
   1554000   285.64379      60724.186      80965.12      -18070.878      794.87653     -1196012.6      1541.9157    
   1555000   286.46198      60864.864      81030.255     -18133.031      773.44468     -1196104.4      1601.1838    
   1556000   286.35163      61039.39       81269.686     -18311.344      807.90853     -1195831.8      1718.0982    
   1557000   286.2221       61161.006      81437.522     -18185.771      794.46357     -1195401.8      1647.8035    
   1558000   287.4839       61153.754      80942.304     -18156.853      763.42424     -1195876.2      1807.065     
   1559000   284.89732      60808.928      81279.563     -18044.193      766.11523     -1195673.8      1885.6858    
   1560000   285.73742      61499.083      81198.529     -18082.032      747.38737     -1195752.5      1717.5938    
   1561000   286.28313      61228.225      81335.272     -18118.76       778.33362     -1195750        1574.3472    
   1562000   286.48776      61273.157      81242.609     -18109.843      776.48404     -1195935.8      1677.5901    
   1563000   286.07699      61135.9        81112.025     -18121.249      772.44308     -1196088.8      1819.5208    
   1564000   287.24612      61135.035      81054.3       -18047.135      775.94458     -1195711.3      1609.3432    
   1565000   286.04139      61305.828      81296.554     -18226.202      773.856       -1195904        1796.3915    
   1566000   286.77178      61018.58       80979.087     -18152.053      813.58007     -1196154.2      1745.1804    
   1567000   284.63324      60810.941      81284.063     -17998.289      817.85461     -1195818.2      1493.3858    
   1568000   285.78647      61005.585      81407.555     -18205.522      759.65129     -1196411.1      1666.1738    
   1569000   285.24635      61094.9        81215.334     -18109.802      797.82374     -1196007.1      1325.2552    
   1570000   284.09059      61416.772      81385.194     -18249.012      794.33404     -1195380        1554.337     
   1571000   286.62622      61548.457      81131.073     -18177.1        816.20059     -1195789        1463.0004    
   1572000   285.97779      61388.638      81145.475     -18189.041      786.21981     -1195916.8      1503.8184    
   1573000   286.05562      61087.975      81360.4       -18153.665      767.77304     -1195788.8      1824.9747    
   1574000   284.48829      61173.507      81003.802     -18125.104      741.58144     -1195920.5      1715.5998    
   1575000   285.2893       60747.928      81335.861     -18235.261      771.29918     -1196134.4      1728.9019    
   1576000   286.52956      61152.077      81048.537     -18057.956      775.65795     -1195826        1793.6644    
   1577000   286.76177      60936.35       81374.472     -18084.834      790.99663     -1195798.9      1916.9539    
   1578000   287.15391      61048.473      81095.828     -18051.068      767.09766     -1195761.1      1582.9674    
   1579000   285.69865      61074.302      81039.969     -18037.04       803.8271      -1195612.1      1606.3226    
   1580000   286.85808      61158.896      81160.646     -18099.821      795.4714      -1195787.9      1661.9615    
   1581000   286.8602       60893.876      81113.641     -18118.706      765.78205     -1196115.6      1457.4878    
   1582000   286.05717      60883.832      81505.432     -18225.927      798.34256     -1196174.3      1800.4429    
   1583000   286.14017      60786.785      81239.728     -18114.464      835.03209     -1196171.8      1441.3303    
   1584000   286.84441      61066.881      81186.269     -18189.151      781.96399     -1195838.2      1794.3046    
   1585000   286.47388      61087.878      81086.354     -18071.687      795.25227     -1195952.4      1669.597     
   1586000   286.33295      60558.158      81350.206     -18199.584      799.47919     -1195786.4      1638.8043    
   1587000   286.74523      60911.671      81195.141     -18104.19       830.08291     -1196077.3      1740.917     
   1588000   285.86768      60922.052      81245.702     -18066.311      800.58204     -1195992.8      1499.4757    
   1589000   286.28348      61106.432      81276.722     -18073.228      781.65486     -1195925.7      1602.4653    
   1590000   286.15977      61068.949      81241.754     -18188.946      789.00746     -1195707        1641.9299    
   1591000   286.40369      61249.58       81161.373     -18231.984      817.87021     -1195504.8      1677.543     
   1592000   284.8926       61385.042      81349.636     -18204.957      801.28999     -1195384        1882.2978    
   1593000   285.86935      61166.763      81475.562     -18190.157      788.09218     -1196006.4      1692.8667    
   1594000   285.9172       60968.639      81440.633     -18080.644      775.15917     -1195843.5      1764.7572    
   1595000   285.91378      60686.271      81518.848     -18232.139      764.10292     -1195971.9      1947.172     
   1596000   286.907        61310.634      80878.874     -18235.195      774.981       -1195919        1829.6934    
   1597000   286.07062      60887.681      80886.729     -18247.379      815.43794     -1196066.3      1549.1501    
   1598000   286.25047      61099.6        80950.026     -18136.85       788.39961     -1195836        1812.0691    
   1599000   285.77288      61181.813      81064.256     -18245.066      779.26937     -1195785.6      1634.2861    
   1600000   285.061        61173.402      81189.198     -18151.01       796.73297     -1195887.5      1629.171     
   1601000   286.03434      61351.554      81145.352     -18159.111      796.6713      -1195749.5      1808.1213    
   1602000   285.62996      60804.925      81292.099     -18177.162      755.32927     -1196127.8      1588.6386    
   1603000   285.68083      60897.195      81203.815     -18153.826      769.40896     -1195991        1690.1457    
   1604000   285.65234      60751.448      81315.046     -18168.744      765.85801     -1195742.2      1734.1261    
   1605000   286.70961      61074.614      80875.852     -18158.931      767.45197     -1195880.8      1928.9798    
   1606000   287.41632      61368.51       80672.688     -18173.024      774.51144     -1195589.3      1678.7989    
   1607000   286.42776      61126.476      81038.072     -18063.264      792.01492     -1195780.8      1628.8188    
   1608000   286.27421      61105.647      81374.548     -18199.866      769.93692     -1195692        1824.0686    
   1609000   286.04245      61048.386      80992.727     -18231.028      780.688       -1195570.1      1951.7997    
   1610000   285.69843      60875.201      81177.207     -18231.281      774.45134     -1196290.1      1688.3082    
   1611000   286.35752      61116.217      80968.651     -18263.16       747.93863     -1196098.1      1792.2701    
   1612000   286.4061       61196.612      81292.683     -18200.234      774.88003     -1195695.6      1778.8443    
   1613000   285.7348       61232.012      81070.829     -18041.106      776.39614     -1195961        1465.9188    
   1614000   285.49705      60730.886      81303.799     -18167.578      774.83661     -1196065.1      1555.3422    
   1615000   285.52645      60880.076      81646.311     -18170.007      762.26218     -1195838.8      1678.8139    
   1616000   285.32388      61352.694      81334.32      -18156.413      768.79924     -1195661.7      1514.3192    
   1617000   284.81201      60920.143      81658.775     -18217.758      783.13386     -1195289.2      1818.7172    
   1618000   287.42796      61114.868      81296.423     -18159.911      800.20774     -1196059.8      1768.6914    
   1619000   285.20009      60929.372      81217.508     -18117.351      773.17815     -1195657.8      1670.6229    
   1620000   284.67663      60598.568      81192.096     -18147.67       780.67101     -1196096.3      1556.5745    
   1621000   286.18795      60819.559      81306.54      -18117.154      765.89857     -1196405.9      1739.0918    
   1622000   286.72762      61286.759      81056.779     -18162.55       760.76822     -1195955.4      1868.7415    
   1623000   286.72729      61119.916      81441.697     -18054.648      773.05282     -1195888.1      1396.4705    
   1624000   285.98148      60940.856      81248.245     -18260.998      787.41627     -1195905.1      1700.8079    
   1625000   286.80359      61253.696      81033.172     -18233.228      802.79826     -1195846.7      1665.8162    
   1626000   285.82118      60797.147      81307.865     -18241.261      753.72122     -1196066.7      1774.6899    
   1627000   285.6391       61394.042      81195.05      -18185.149      761.14024     -1195525.4      1491.3241    
   1628000   286.87114      61281.622      81167.23      -18136.294      757.86699     -1196077.3      1415.124     
   1629000   287.22224      60980.997      81081.984     -18251.199      771.08721     -1196283.6      1718.8365    
   1630000   285.28855      61054.032      81632.219     -18162.407      770.81124     -1195388.3      1536.7917    
   1631000   286.33132      60764.262      81197.48      -18263.331      781.26504     -1196352        1894.3197    
   1632000   285.9951       60883.173      81008.048     -18009.668      809.32737     -1196021        1672.6148    
   1633000   285.90069      61249.636      81040.752     -18047.083      792.96618     -1195517.2      1525.5728    
   1634000   286.24654      61025.383      81203.769     -18081.976      779.1377      -1195975.5      1579.3229    
   1635000   287.1481       61384.28       80853.576     -18071.194      785.31463     -1195792.2      1821.7123    
   1636000   286.23385      61245.966      80992.57      -18205.013      794.66277     -1195736.1      1662.2429    
   1637000   285.70567      60901.857      81036.12      -18153.499      751.29983     -1196012.8      1442.0877    
   1638000   286.22705      60938.813      81245.615     -18133.736      758.436       -1195996.2      1844.547     
   1639000   286.34602      61170.089      81186.524     -18180.586      761.9171      -1195958.1      1736.9039    
   1640000   286.54664      61397.41       81187.485     -18160.835      818.44532     -1195592        1644.4115    
   1641000   286.67289      60961.117      81455.583     -18116.598      812.37687     -1195552.7      1764.9472    
   1642000   288.24462      60706.151      81010.328     -17978.759      783.13524     -1195920.3      1782.0894    
   1643000   287.24603      60996.101      81518.42      -18110.669      787.45496     -1195511.4      1513.4394    
   1644000   287.35709      60746.322      81575.65      -18038.946      754.00097     -1195618.4      1474.5528    
   1645000   286.47399      61072.574      80861.414     -18088.41       815.96767     -1195913.5      1800.8106    
   1646000   287.0872       61221.709      80923.051     -18175.045      744.68754     -1195854.1      1704.4596    
   1647000   287.32348      61424.867      80936.906     -18175.626      782.9515      -1195827.7      1826.5588    
   1648000   287.05694      61214.727      81470.348     -18072.126      794.2918      -1195294.6      1602.6211    
   1649000   286.34801      61102.937      81313.729     -18239.321      787.20592     -1195815.5      1703.0973    
   1650000   287.29096      60712.221      81035.817     -18220.634      792.04922     -1196196.6      1800.7636    
   1651000   286.66319      60799.994      81335.963     -18178.967      769.32662     -1195958.5      1578.4095    
   1652000   284.66836      61393.716      81015.054     -18151.364      810.81336     -1195780.2      1506.2768    
   1653000   285.59526      61198.329      81194.146     -18182.178      770.14174     -1195912.6      1781.2332    
   1654000   286.64872      60731.861      81512.076     -18163.764      772.76807     -1195700.9      1592.1187    
   1655000   287.69124      61038.627      81396.895     -18239.233      777.31515     -1196061.3      1609.8548    
   1656000   286.80559      61107.719      81270.259     -18186.678      765.12459     -1195815.8      1695.1323    
   1657000   285.76876      60992.543      81283.82      -18157.631      746.80817     -1196043.6      1610.6535    
   1658000   286.80328      60965.466      80870.006     -18066.786      784.39508     -1196452.7      1520.4602    
   1659000   286.5544       61058.999      81201.169     -18141.962      776.72149     -1195992.7      1853.8247    
   1660000   285.52675      61100.374      81105.454     -18074.396      784.11604     -1195492        1817.0751    
   1661000   285.92782      60929.567      81656.023     -18205.556      789.30712     -1195571.8      1536.6972    
   1662000   285.56885      60842.46       81293.006     -18131.931      767.44605     -1195775.9      1707.2038    
   1663000   285.13008      61365.811      80925.744     -18242.209      805.4316      -1196289.7      1730.0275    
   1664000   287.09814      61096.212      80933.311     -18131.788      808.30093     -1196069.6      1676.5363    
   1665000   286.63888      61140.836      81306.76      -18130.3        802.96466     -1195873.2      1542.7665    
   1666000   286.6621       60983.869      81311.748     -18192.672      776.09695     -1196504.9      1713.3848    
   1667000   286.93661      61274.247      80761.67      -18161.42       770.67501     -1196358.7      1571.2283    
   1668000   286.9519       61145.299      81278.59      -18207.301      787.66302     -1195960.4      1769.9278    
   1669000   285.50935      60945.135      81473.284     -18177.433      790.36902     -1195779.8      1852.805     
   1670000   287.67667      61307.199      81210.521     -18232.95       796.46797     -1195515.9      1808.9375    
   1671000   285.33667      61156.976      81277.319     -18215.654      750.72189     -1195948.4      1764.7259    
   1672000   285.93393      61193.106      81245.38      -18234.508      791.17515     -1196051.6      1563.5901    
   1673000   287.10942      60791.718      81150.013     -18170.765      794.34896     -1196216.8      1814.5771    
   1674000   286.36552      60844.008      81321.538     -18167.075      793.17154     -1195734.2      1928.3572    
   1675000   286.97355      60966.943      81290.384     -18196.298      819.39547     -1196128.3      1778.8789    
   1676000   286.5206       61095.328      81621.962     -18281.104      794.28848     -1195448.6      1763.678     
   1677000   286.94552      61133.62       80885.288     -18051.009      774.19709     -1196038.8      1887.122     
   1678000   285.2532       61045.175      81441.266     -18167.369      774.90986     -1195725.3      1883.4453    
   1679000   286.64304      60854.061      81145.072     -18141.556      770.37354     -1195918.8      1634.8884    
   1680000   284.69688      60950.575      81343.964     -18070.348      822.74863     -1195720.3      1783.4526    
   1681000   284.96581      61214.976      81147.053     -18213.938      774.09467     -1196091.2      1529.687     
   1682000   287.30576      60878.449      81006.871     -18180.865      768.53076     -1195859.5      1760.979     
   1683000   284.8566       60839.398      81393.86      -18238.926      777.93485     -1195671.7      1694.0203    
   1684000   285.37408      61051.568      81161.625     -18207.197      751.55418     -1196105.3      1768.6547    
   1685000   285.89349      61177.597      81240.873     -18125.016      775.82868     -1195738.9      1663.6669    
   1686000   286.06451      61326.189      81361.407     -18233.462      783.00026     -1195432.7      1565.2147    
   1687000   286.2881       61518.37       80997.303     -18211.935      739.64013     -1195631.2      1553.9204    
   1688000   285.81472      60888.837      81435.525     -18090.466      793.1273      -1195939.2      1601.8449    
   1689000   285.27429      60923.652      81446.736     -18108.816      820.60557     -1195490.3      1592.4699    
   1690000   285.56549      61129.524      81135.382     -18177.704      780.36496     -1195572.2      1721.6736    
   1691000   286.623        60987.159      81395.685     -18252.867      755.53494     -1195816.7      1782.8171    
   1692000   287.15335      60759.653      81507.651     -18124.766      767.45369     -1196070        1607.0974    
   1693000   285.84485      60875.12       81444.681     -18200.225      764.44861     -1196492.3      1756.3974    
   1694000   287.14376      60990.942      81085.434     -18053.729      803.57093     -1196069.5      1694.9423    
   1695000   286.32409      60985.084      81096.278     -18183.691      791.88638     -1196098.9      1683.0668    
   1696000   286.05457      60985.512      81147.325     -18152.501      802.97735     -1196102.2      1735.6191    
   1697000   284.97781      61213.618      80982.005     -18190.281      810.71024     -1196059.6      1512.7545    
   1698000   286.13638      60968.236      81196.572     -18151.015      749.75078     -1196148.5      1543.3438    
   1699000   285.94453      61209.641      80930.019     -18127.164      784.28347     -1195869        1626.0028    
   1700000   284.89968      60872.17       81434.595     -18158.6        795.09663     -1195491.7      1782.5445    
   1701000   286.18264      61050.488      81007.884     -18211.752      782.03457     -1195966.8      1797.4187    
   1702000   286.19681      60938.363      81350.472     -18286.321      792.18667     -1195712.4      1688.572     
   1703000   286.11343      61082.22       80932.516     -18212.472      798.24667     -1196087.5      1546.8993    
   1704000   285.0798       61399.516      80824.086     -18256.671      741.26628     -1195879.2      1563.3917    
   1705000   285.10142      60991.597      81099.335     -18226.932      769.78241     -1196197.9      1599.7432    
   1706000   286.26316      61122.661      81223.329     -18296.294      780.66735     -1195754.2      1941.8259    
   1707000   286.86772      61549.5        81177.85      -18296.383      805.86344     -1195795.5      1612.693     
   1708000   286.08571      61162.327      80754.826     -18219.745      767.10414     -1196056.2      1513.0704    
   1709000   285.6324       61036.403      81196.501     -18195.201      736.76575     -1195991.5      1710.9947    
   1710000   286.35678      60891.167      81160.667     -18170.833      782.73004     -1195833.1      1698.1633    
   1711000   287.42527      61073.369      81040.677     -18216.365      792.42914     -1196039.2      1854.8383    
   1712000   286.53793      61098.093      81235.615     -18214.04       749.52237     -1195945.4      1777.8787    
   1713000   286.17361      61344.185      80858.996     -18154.879      802.23772     -1195840.3      1686.3216    
   1714000   284.60111      60788.569      81466.812     -18247.433      801.35905     -1195941.7      1783.1219    
   1715000   287.10044      60787.208      81269.629     -18156.297      759.89611     -1196127.1      1741.6006    
   1716000   285.93807      61197.266      81346.459     -18176.794      767.91142     -1195738.3      1528.2661    
   1717000   286.71992      60769.269      81158.978     -18166.194      790.28229     -1196113.9      1571.6463    
   1718000   286.18442      61059.991      81091.496     -18124.028      763.6671      -1196152.5      1583.6062    
   1719000   284.79494      61072.767      81172.539     -18050.241      798.69124     -1195966.1      1768.6184    
   1720000   287.20838      61152.975      80857.555     -18178.233      738.70907     -1195816.3      1580.2717    
   1721000   287.46916      61452.306      81178.047     -18166.038      784.0415      -1195553.7      1566.2837    
   1722000   285.8822       60945.446      81282.146     -18258.786      779.5152      -1196073.5      1732.265     
   1723000   285.38065      60784.42       81440.459     -18147.285      762.78703     -1195951.2      1611.3776    
   1724000   285.33866      61087.869      81013.762     -18288.839      763.58163     -1195916.5      1739.6089    
   1725000   285.79384      60710.088      81461.736     -18159.606      798.24011     -1196102.9      1642.1411    
   1726000   286.70267      60918.147      81344.849     -18098.964      757.5819      -1195287.9      1499.2977    
   1727000   286.13284      60954.819      81113.157     -18227.363      794.95103     -1196042.1      1861.1922    
   1728000   287.19992      61258.089      81059.143     -18254.452      750.93313     -1195773.7      1800.9526    
   1729000   286.58604      61013.29       81465.178     -18122.119      736.26578     -1195389.7      1725.585     
   1730000   286.66423      60997.988      81116.636     -17988.003      761.34484     -1195821.5      1525.1608    
   1731000   286.50358      61068.391      81258.131     -18198.028      808.73704     -1195937.4      1629.9888    
   1732000   285.32083      60909.585      81240.979     -18114.71       781.85554     -1195782.1      1684.8746    
   1733000   286.88489      61145.475      81267.793     -18291.358      769.68931     -1195361.8      1763.7663    
   1734000   286.16395      60928.513      81209.909     -18202.878      772.79907     -1195932.9      1629.6631    
   1735000   286.45148      60696.51       81321.466     -18176.411      794.89983     -1196137.8      1799.0153    
   1736000   286.47503      60861.97       81225.704     -18188.482      793.60295     -1196006        1826.8777    
   1737000   286.42249      61036.457      81201.888     -18178.896      811.73332     -1195744.4      1678.0132    
   1738000   285.41672      61146.235      81124.496     -18184.104      780.79775     -1195879.5      1871.9601    
   1739000   285.67801      60901.476      81058.142     -18071.882      765.87259     -1196005        1670.7052    
   1740000   286.47701      61050.318      80985.275     -18174.779      769.08088     -1195896.8      1796.9031    
   1741000   286.55593      60967.582      81321.543     -18276.486      787.11492     -1196087.1      1681.4788    
   1742000   286.32873      60921.661      80903.992     -18193.372      793.41989     -1196282.2      1622.4649    
   1743000   286.98225      61054.235      81296.311     -18013.436      808.23398     -1195846.2      1596.8012    
   1744000   286.58538      61089.018      81170.818     -18213.439      798.56313     -1195923.5      1986.5108    
   1745000   286.05696      61021.159      81057.937     -18188.932      772.73651     -1195885.2      1871.7751    
   1746000   284.95709      60957.84       81210.699     -18120.29       793.91346     -1196165.1      1580.6498    
   1747000   285.98525      61081.894      80863.722     -18100.216      828.34393     -1196416.5      1515.4878    
   1748000   286.51361      60815.041      81373.443     -18129.292      783.6269      -1196206.7      1459.7702    
   1749000   285.73043      60968.086      81442.072     -18293.071      757.56554     -1195661        1797.3399    
   1750000   287.89617      61302.499      80779.479     -18075.545      799.32852     -1196044.4      1640.2631    
   1751000   286.2057       61236.926      81241.275     -18104.222      778.02987     -1195880.8      1553.4537    
   1752000   285.78185      60769.59       81128.963     -18105.718      769.60133     -1195854.5      1699.1898    
   1753000   287.58773      61207.949      80847.261     -18113.896      803.54294     -1195993.7      1489.9492    
   1754000   286.25613      61286.852      81381.362     -18127.219      825.68489     -1195411.7      1633.5067    
   1755000   285.22143      61378.616      80930.279     -18175.639      811.53628     -1195978.3      1889.5743    
   1756000   285.79839      60748.604      81004.195     -18183.008      781.44025     -1196041.8      1779.6333    
   1757000   287.46996      61204.317      81187.552     -18131.45       806.99538     -1195954.7      1573.1574    
   1758000   287.61736      61158.655      81603.405     -18234.193      822.06796     -1195786.2      1816.8468    
   1759000   285.28862      60935.771      81181.49      -18051.512      821.62658     -1195878.5      1623.8937    
   1760000   286.29956      61211.87       80863.196     -18079.784      760.69348     -1196277        1607.5994    
   1761000   286.77719      61089.86       81152.704     -18192.709      761.72628     -1196144.6      1688.1011    
   1762000   286.51209      60776.779      81212.291     -18104.919      768.38802     -1196266.5      1674.1228    
   1763000   288.19539      61149.424      81231.423     -18196.767      779.10498     -1195727.7      1876.803     
   1764000   285.85145      61245.145      81265.412     -18164.79       782.85848     -1195619.6      1570.2555    
   1765000   286.15959      61026.149      81375.909     -18146.69       769.41754     -1195755.6      1807.4445    
   1766000   286.2877       61051.161      81189.849     -18054.458      794.72529     -1195793.4      1823.9076    
   1767000   288.32447      60811.17       80844.508     -18087.119      816.46503     -1196259.4      1656.4597    
   1768000   286.7725       61097.647      80792.974     -18168.705      806.39395     -1196166.9      1883.4804    
   1769000   285.83771      60790.998      81559.984     -18228.882      800.18725     -1196094.7      1474.3045    
   1770000   285.03108      61274.144      81333.339     -18214.775      760.49541     -1195811.9      1743.3325    
   1771000   287.51107      60929.548      81138.883     -18079.746      803.91535     -1195771.7      1421.5446    
   1772000   286.02317      60703.823      81031.881     -18108.842      789.96159     -1195918.3      1696.149     
   1773000   286.84895      60889.964      81192.522     -18151.105      775.89878     -1196052.7      1834.7113    
   1774000   285.61857      61111.986      81208.781     -18185.19       757.48216     -1195745.3      1472.988     
   1775000   286.79946      61259.275      80886.115     -18065.09       767.31624     -1196244.2      1569.3449    
   1776000   284.3154       610