LAMMPS (22 Jul 2025 - Update 4)
KOKKOS mode with Kokkos version 4.6.2 is enabled
  will use up to 1 GPU(s) per node
  using 1 OpenMP thread(s) per MPI task
package kokkos
package kokkos newton off
units           real
atom_style      full
boundary        p p p
comm_style      brick
# newton off
special_bonds   lj/coul 0.0 0.0 1.0
bond_style      class2
angle_style     class2
dihedral_style  class2
improper_style  class2
pair_style      soft 10.0
read_data       setup.data
Reading data file ...
  orthogonal box = (0 0 -160) to (80.6296 82.864 160)
  1 by 1 by 1 MPI processor grid
  reading atoms ...
  38466 atoms
  scanning bonds ...
  4 = max bonds/atom
  scanning angles ...
  18 = max angles/atom
  scanning dihedrals ...
  39 = max dihedrals/atom
  scanning impropers ...
  16 = max impropers/atom
  orthogonal box = (0 0 -160) to (80.6296 82.864 160)
  1 by 1 by 1 MPI processor grid
  reading bonds ...
  38628 bonds
  reading angles ...
  72288 angles
  reading dihedrals ...
  101682 dihedrals
  reading impropers ...
  43650 impropers
Finding 1-2 1-3 1-4 neighbors ...
  special bond factors lj:    0        0        1       
  special bond factors coul:  0        0        1       
     4 = max # of 1-2 neighbors
    12 = max # of 1-3 neighbors
    16 = max # of special neighbors
  special bonds CPU = 0.036 seconds
  read_data CPU = 2.433 seconds
include         setup.params
# LAMMPS parameters created by EMC v9.4.4, build Jun 30 2026 09:51:48

# Variables

variable	seed		index	777888
variable	ntotal		index	38466
variable	fshape		index	1
variable	output		index	setup
variable	field		index	cff/pcff/pcff
variable	location1	index	~/Apps/EMC/field/
variable	nav		index	0.6022141179
variable	temperature	index	300
variable	radius		index	3.5
variable	nrelax		index	1000
variable	weight_nonbond	index	0.0001
variable	weight_bond	index	0.0001
variable	weight_focus	index	1
variable	cutoff		index	12
variable	charge_cutoff	index	12
variable	kappa		index	1
variable	density1	index	1
variable	lprevious	index	0
variable	lphase		index	80.6296
variable	f_Gmax		index	18
variable	chem_hea	index	*CC(*)C(=O)OCCO
variable	chem_ba		index	*CC(*)C(=O)OCCCC
variable	chem_cbea	index	*CC(*)C(=O)OCCC(=O)[O-]
variable	chem_atac	index	*CC(*)C(=O)OCC[N+](C)(C)C
variable	chem_pea	index	*CC(*)C(=O)OCCOc1ccccc1
variable	chem_t		index	*C
variable	lg_hea		index	16
variable	lg_ba		index	21
variable	lg_cbea		index	17
variable	lg_atac		index	27
variable	lg_pea		index	26
variable	lg_t		index	4
variable	norm_Gmax	index	1
variable	l_Gmax		index	2137
variable	mg_hea		index	116.11771
variable	mg_ba		index	128.17249
variable	mg_cbea		index	143.12029
variable	mg_atac		index	158.22222
variable	mg_pea		index	192.21649
variable	mg_t		index	15.03506
variable	m_Gmax		index	13867.24439
variable	n_Gmax		index	18
variable	mtotal		index	249610.39902
variable	nphase1		index	38466
variable	mphase1		index	249610.39902
variable	vphase1		index	414487.790307
variable	lbox		index	74.5596591511
variable	lphase1		index	74.5596591511
variable	lxx		index	80.6296
variable	lyy		index	82.864
variable	lzz		index	80
variable	lzy		index	0
variable	lzx		index	0
variable	lyx		index	0
variable	vtotal		index	534503.293952
variable	nl_Gmax		index	18

# Types

variable	type_c		index	1
variable	type_cm		index	2
variable	type_c1		index	3
variable	type_c_1	index	4
variable	type_cp		index	5
variable	type_hc		index	6
variable	type_ho		index	7
variable	type_n4		index	8
variable	type_om		index	9
variable	type_o_1	index	10
variable	type_o_2	index	11
variable	type_oc		index	12
variable	type_oh		index	13

variable	type_bond_c_c	index	1
variable	type_bond_c_cm	index	2
variable	type_bond_c_c1	index	3
variable	type_bond_c_hc	index	4
variable	type_bond_c_n4	index	5
variable	type_bond_c_o_2	index	6
variable	type_bond_c_oc	index	7
variable	type_bond_c_oh	index	8
variable	type_bond_cm_om	index	9
variable	type_bond_c1_c_1 index	10
variable	type_bond_c1_hc	index	11
variable	type_bond_c_1_o_1 index	12
variable	type_bond_c_1_o_2 index	13
variable	type_bond_cp_cp	index	14
variable	type_bond_cp_hc	index	15
variable	type_bond_cp_oc	index	16
variable	type_bond_ho_oh	index	17

variable	type_angle_c_c_c index	1
variable	type_angle_c_c_cm index	2
variable	type_angle_c_c_c1 index	3
variable	type_angle_c_c_hc index	4
variable	type_angle_c_c_n4 index	5
variable	type_angle_c_c_o_2 index	6
variable	type_angle_c_c_oc index	7
variable	type_angle_c_c_oh index	8
variable	type_angle_c_cm_om index	9
variable	type_angle_c_c1_c index	10
variable	type_angle_c_c1_c_1 index	11
variable	type_angle_c_c1_hc index	12
variable	type_angle_c_n4_c index	13
variable	type_angle_c_o_2_c_1 index	14
variable	type_angle_c_oc_cp index	15
variable	type_angle_c_oh_ho index	16
variable	type_angle_cm_c_hc index	17
variable	type_angle_c1_c_c1 index	18
variable	type_angle_c1_c_hc index	19
variable	type_angle_c1_c_1_o_1 index	20
variable	type_angle_c1_c_1_o_2 index	21
variable	type_angle_c_1_c1_hc index	22
variable	type_angle_cp_cp_cp index	23
variable	type_angle_cp_cp_hc index	24
variable	type_angle_cp_cp_oc index	25
variable	type_angle_hc_c_hc index	26
variable	type_angle_hc_c_n4 index	27
variable	type_angle_hc_c_o_2 index	28
variable	type_angle_hc_c_oc index	29
variable	type_angle_hc_c_oh index	30
variable	type_angle_om_cm_om index	31
variable	type_angle_o_1_c_1_o_2 index	32

# Clusters

variable	n0_Gmax		index	1
variable	n1_Gmax		index	18
variable	nl_Gmax		index	18

# Flags

variable	flag_charged	index	1

# Masses

mass		 1    12.01115  # c
mass		 2    12.01115  # c-
mass		 3    12.01115  # c1
mass		 4    12.01115  # c_1
mass		 5    12.01115  # cp
mass		 6     1.00797  # hc
mass		 7     1.00797  # ho
mass		 8    14.00670  # n4
mass		 9    15.99940  # o-
mass		10    15.99940  # o_1
mass		11    15.99940  # o_2
mass		12    15.99940  # oc
mass		13    15.99940  # oh

# Potentials

pair_style	lj/class2/coul/long ${cutoff} ${charge_cutoff}  # 9.5
pair_style	lj/class2/coul/long 12 ${charge_cutoff}  
pair_style	lj/class2/coul/long 12 12  
bond_style	class2
angle_style	class2
dihedral_style	class2
improper_style	class2
pair_modify	mix sixthpower tail yes
special_bonds	lj/coul 0 0 1

# Pair Coeffs

pair_coeff	 1  1    0.05400    4.01000  # c,c
pair_coeff	 2  2    0.12000    3.90800  # c-,c-
pair_coeff	 3  3    0.05400    4.01000  # c1,c1
pair_coeff	 4  4    0.12000    3.81000  # c_1,c_1
pair_coeff	 5  5    0.06400    4.01000  # cp,cp
pair_coeff	 6  6    0.02000    2.99500  # hc,hc
pair_coeff	 7  7    0.01300    1.09800  # ho,ho
pair_coeff	 8  8    0.06500    3.26200  # n4,n4
pair_coeff	 9  9    0.16700    3.59600  # o-,o-
pair_coeff	10 10    0.26700    3.30000  # o_1,o_1
pair_coeff	11 11    0.24000    3.42000  # o_2,o_2
pair_coeff	12 12    0.24000    3.53500  # oc,oc
pair_coeff	13 13    0.24000    3.53500  # oh,oh

# Bond Coeffs

bond_coeff	 1    1.53000  299.67000 -501.77000  679.81000  # c,c
bond_coeff	 2    1.54830  253.08000 -449.03000  457.32000  # c,c-
bond_coeff	 3    1.53000  299.67000 -501.77000  679.81000  # c,c1
bond_coeff	 4    1.10100  345.00000 -691.89000  844.60000  # c,hc
bond_coeff	 5    1.51850  293.17000 -603.78820  629.69000  # c,n4
bond_coeff	 6    1.43000  326.72730 -608.53060  689.03330  # c,o_2
bond_coeff	 7    1.42000  400.39540 -835.19510 1313.01420  # c,oc
bond_coeff	 8    1.42000  400.39540 -835.19510 1313.01420  # c,oh
bond_coeff	 9    1.23390  711.35000 -1543.90000 1858.60000  # c-,o-
bond_coeff	10    1.52020  253.70670 -423.03700  396.90000  # c1,c_1
bond_coeff	11    1.10100  345.00000 -691.89000  844.60000  # c1,hc
bond_coeff	12    1.20200  851.14030 -1918.48820 2160.76590  # c_1,o_1
bond_coeff	13    1.36830  367.14810 -794.79080 1055.23190  # c_1,o_2
bond_coeff	14    1.41700  470.83610 -627.61790 1327.63450  # cp,cp
bond_coeff	15    1.09820  372.82510 -803.45260  894.31730  # cp,hc
bond_coeff	16    1.37680  428.87980 -738.23510 1114.96550  # cp,oc
bond_coeff	17    0.96500  532.50620 -1282.90500 2004.76580  # ho,oh

# Angle Coeffs

angle_coeff	 1  112.67000   39.51600   -7.44300   -9.55830  # c,c,c
angle_coeff	 2  104.49000   31.37500   -4.40230   -6.52710  # c,c,c-
angle_coeff	 3  112.67000   39.51600   -7.44300   -9.55830  # c,c,c1
angle_coeff	 4  110.77000   41.45300  -10.60400    5.12900  # c,c,hc
angle_coeff	 5  112.13000   66.45200    4.86940   37.78600  # c,c,n4
angle_coeff	 6  107.41000   63.39070  -13.45130    1.66500  # c,c,o_2
angle_coeff	 7  111.27000   54.53810   -8.36420  -13.08380  # c,c,oc
angle_coeff	 8  111.27000   54.53810   -8.36420  -13.08380  # c,c,oh
angle_coeff	 9  115.06000   59.09600  -15.14300  -12.98200  # c,c-,o-
angle_coeff	10  112.67000   39.51600   -7.44300   -9.55830  # c,c1,c
angle_coeff	11  108.52950   51.97470   -9.48510  -10.99850  # c,c1,c_1
angle_coeff	12  110.77000   41.45300  -10.60400    5.12900  # c,c1,hc
angle_coeff	13  109.77000   44.82200   -3.91320    0.00000  # c,n4,c
angle_coeff	14  113.28800   61.28680  -28.97860    7.99290  # c,o_2,c_1
angle_coeff	15  102.96950   38.97390   -6.25950   -8.17100  # c,oc,cp
angle_coeff	16  105.80000   52.70610  -12.10900   -9.86810  # c,oh,ho
angle_coeff	17  109.67000   37.91900   -7.38770   -8.06940  # c-,c,hc
angle_coeff	18  112.67000   39.51600   -7.44300   -9.55830  # c1,c,c1
angle_coeff	19  110.77000   41.45300  -10.60400    5.12900  # c1,c,hc
angle_coeff	20  123.14510   55.54310  -17.21230    0.13480  # c1,c_1,o_1
angle_coeff	21  100.31820   38.86310   -3.83230   -7.98020  # c1,c_1,o_2
angle_coeff	22  107.73360   40.60990  -28.81210    0.00000  # c_1,c1,hc
angle_coeff	23  118.90000   61.02260  -34.99310    0.00000  # cp,cp,cp
angle_coeff	24  117.94000   35.15580  -12.46820    0.00000  # cp,cp,hc
angle_coeff	25  123.42000   73.67810  -21.67870    0.00000  # cp,cp,oc
angle_coeff	26  107.66000   39.64100  -12.92100   -2.43180  # hc,c,hc
angle_coeff	27  105.85000   72.26300  -28.19230    0.00000  # hc,c,n4
angle_coeff	28  107.68800   65.48010  -10.34980    5.88660  # hc,c,o_2
angle_coeff	29  108.72800   58.54460  -10.80880  -12.40060  # hc,c,oc
angle_coeff	30  108.72800   58.54460  -10.80880  -12.40060  # hc,c,oh
angle_coeff	31  130.01000  111.29000  -52.33900  -28.10700  # o-,c-,o-
angle_coeff	32  120.79700   95.34460  -32.28690    6.37780  # o_1,c_1,o_2

# BondBond Coeffs

angle_coeff	 1 bb    0.00000    1.53000    1.53000  # c,c,c
angle_coeff	 2 bb   16.46500    1.53000    1.54830  # c,c,c-
angle_coeff	 3 bb    0.00000    1.53000    1.53000  # c,c,c1
angle_coeff	 4 bb    3.38720    1.53000    1.10100  # c,c,hc
angle_coeff	 5 bb   16.42800    1.53000    1.51850  # c,c,n4
angle_coeff	 6 bb   23.26470    1.53000    1.43000  # c,c,o_2
angle_coeff	 7 bb   11.43180    1.53000    1.42000  # c,c,oc
angle_coeff	 8 bb   11.43180    1.53000    1.42000  # c,c,oh
angle_coeff	 9 bb   57.87500    1.54830    1.23390  # c,c-,o-
angle_coeff	10 bb    0.00000    1.53000    1.53000  # c,c1,c
angle_coeff	11 bb    5.41990    1.53000    1.52020  # c,c1,c_1
angle_coeff	12 bb    3.38720    1.53000    1.10100  # c,c1,hc
angle_coeff	13 bb   14.95900    1.51850    1.51850  # c,n4,c
angle_coeff	14 bb   45.45030    1.43000    1.36830  # c,o_2,c_1
angle_coeff	15 bb    0.00000    1.42000    1.37680  # c,oc,cp
angle_coeff	16 bb   -9.68790    1.42000    0.96500  # c,oh,ho
angle_coeff	17 bb   -1.17010    1.54830    1.10100  # c-,c,hc
angle_coeff	18 bb    0.00000    1.53000    1.53000  # c1,c,c1
angle_coeff	19 bb    3.38720    1.53000    1.10100  # c1,c,hc
angle_coeff	20 bb   46.06850    1.52020    1.20200  # c1,c_1,o_1
angle_coeff	21 bb   19.10690    1.52020    1.36830  # c1,c_1,o_2
angle_coeff	22 bb    0.71150    1.52020    1.10100  # c_1,c1,hc
angle_coeff	23 bb   68.28560    1.41700    1.41700  # cp,cp,cp
angle_coeff	24 bb    1.07950    1.41700    1.09820  # cp,cp,hc
angle_coeff	25 bb   48.47540    1.41700    1.37680  # cp,cp,oc
angle_coeff	26 bb    5.33160    1.10100    1.10100  # hc,c,hc
angle_coeff	27 bb   -1.47970    1.10100    1.51850  # hc,c,n4
angle_coeff	28 bb    5.64540    1.10100    1.43000  # hc,c,o_2
angle_coeff	29 bb   23.19790    1.10100    1.42000  # hc,c,oc
angle_coeff	30 bb   23.19790    1.10100    1.42000  # hc,c,oh
angle_coeff	31 bb  166.59000    1.23390    1.23390  # o-,c-,o-
angle_coeff	32 bb  121.48800    1.20200    1.36830  # o_1,c_1,o_2

# BondAngle Coeffs

angle_coeff	 1 ba    8.01600    8.01600    1.53000    1.53000  # c,c,c
angle_coeff	 2 ba   23.08400   19.15900    1.53000    1.54830  # c,c,c-
angle_coeff	 3 ba    8.01600    8.01600    1.53000    1.53000  # c,c,c1
angle_coeff	 4 ba   20.75400   11.42100    1.53000    1.10100  # c,c,hc
angle_coeff	 5 ba   14.06200   49.77300    1.53000    1.51850  # c,c,n4
angle_coeff	 6 ba   23.39200   47.94870    1.53000    1.43000  # c,c,o_2
angle_coeff	 7 ba    2.68680   20.40330    1.53000    1.42000  # c,c,oc
angle_coeff	 8 ba    2.68680   20.40330    1.53000    1.42000  # c,c,oh
angle_coeff	 9 ba   51.58400   62.05600    1.54830    1.23390  # c,c-,o-
angle_coeff	10 ba    8.01600    8.01600    1.53000    1.53000  # c,c1,c
angle_coeff	11 ba   18.16780   15.87580    1.53000    1.52020  # c,c1,c_1
angle_coeff	12 ba   20.75400   11.42100    1.53000    1.10100  # c,c1,hc
angle_coeff	13 ba   23.09300   23.09300    1.51850    1.51850  # c,n4,c
angle_coeff	14 ba   41.91160   46.46080    1.43000    1.36830  # c,o_2,c_1
angle_coeff	15 ba    0.00000    0.00000    1.42000    1.37680  # c,oc,cp
angle_coeff	16 ba   28.58000   18.92770    1.42000    0.96500  # c,oh,ho
angle_coeff	17 ba   11.86500   14.96500    1.54830    1.10100  # c-,c,hc
angle_coeff	18 ba    8.01600    8.01600    1.53000    1.53000  # c1,c,c1
angle_coeff	19 ba   20.75400   11.42100    1.53000    1.10100  # c1,c,hc
angle_coeff	20 ba   34.99820   37.12980    1.52020    1.20200  # c1,c_1,o_1
angle_coeff	21 ba    1.34350    4.69780    1.52020    1.36830  # c1,c_1,o_2
angle_coeff	22 ba   12.46320    9.17650    1.52020    1.10100  # c_1,c1,hc
angle_coeff	23 ba   28.87080   28.87080    1.41700    1.41700  # cp,cp,cp
angle_coeff	24 ba   20.00330   24.21830    1.41700    1.09820  # cp,cp,hc
angle_coeff	25 ba   58.47900  107.68060    1.41700    1.37680  # cp,cp,oc
angle_coeff	26 ba   18.10300   18.10300    1.10100    1.10100  # hc,c,hc
angle_coeff	27 ba   15.88200   50.01800    1.10100    1.51850  # hc,c,n4
angle_coeff	28 ba    8.68640   57.49750    1.10100    1.43000  # hc,c,o_2
angle_coeff	29 ba    4.61890   55.32700    1.10100    1.42000  # hc,c,oc
angle_coeff	30 ba    4.61890   55.32700    1.10100    1.42000  # hc,c,oh
angle_coeff	31 ba   73.35000   73.35000    1.23390    1.23390  # o-,c-,o-
angle_coeff	32 ba   76.26140   71.87610    1.20200    1.36830  # o_1,c_1,o_2

# Dihedral Coeffs

dihedral_coeff	 1    0.00000    0.00000    0.05140    0.00000   -0.14300    0.00000  # c,c,c,c
dihedral_coeff	 2    0.00000    0.00000    0.03160    0.00000   -0.16810    0.00000  # c,c,c,hc
dihedral_coeff	 3    0.00000    0.00000    0.00000    0.00000   -0.25000    0.00000  # c,c,c,o_2
dihedral_coeff	 4    1.73110    0.00000    1.85100    0.00000   -0.19330    0.00000  # c,c,c-,o-
dihedral_coeff	 5    0.00000    0.00000    0.05140    0.00000   -0.14300    0.00000  # c,c,c1,c
dihedral_coeff	 6    0.09720    0.00000    0.07220    0.00000   -0.25810    0.00000  # c,c,c1,c_1
dihedral_coeff	 7    0.00000    0.00000    0.03160    0.00000   -0.16810    0.00000  # c,c,c1,hc
dihedral_coeff	 8    0.70770    0.00000   -0.37440    0.00000   -0.19140    0.00000  # c,c,n4,c
dihedral_coeff	 9    0.00000    0.00000    0.00000    0.00000   -0.19320    0.00000  # c,c,o_2,c_1
dihedral_coeff	10    0.00000    0.00000    0.00000    0.00000    0.13000  180.00000  # c,c,oc,cp
dihedral_coeff	11   -0.67320    0.00000   -0.47780    0.00000   -0.16700    0.00000  # c,c,oh,ho
dihedral_coeff	12    0.00000    0.00000    0.05140    0.00000   -0.14300    0.00000  # c,c1,c,c1
dihedral_coeff	13    0.00000    0.00000    0.03160    0.00000   -0.16810    0.00000  # c,c1,c,hc
dihedral_coeff	14    0.04420    0.00000    0.02920    0.00000    0.05620    0.00000  # c,c1,c_1,o_1
dihedral_coeff	15    1.83410    0.00000    2.06030    0.00000   -0.01950    0.00000  # c,c1,c_1,o_2
dihedral_coeff	16    0.36240    0.00000    0.10120    0.00000   -0.24860    0.00000  # c,n4,c,hc
dihedral_coeff	17   -2.55940    0.00000    2.20130    0.00000    0.03250    0.00000  # c,o_2,c_1,c1
dihedral_coeff	18    0.00000    0.00000    2.20890    0.00000    0.00000    0.00000  # c,o_2,c_1,o_1
dihedral_coeff	19    0.00000    0.00000    1.50000    0.00000    0.00000    0.00000  # c,oc,cp,cp
dihedral_coeff	20   -1.27670    0.00000    0.59490    0.00000    0.23790    0.00000  # c-,c,c,hc
dihedral_coeff	21    0.00000    0.00000    0.00000    0.00000    0.15800  180.00000  # c-,c,c,o_2
dihedral_coeff	22    0.00000    0.00000    0.03160    0.00000   -0.16810    0.00000  # c1,c,c,hc
dihedral_coeff	23    0.09720    0.00000    0.07220    0.00000   -0.25810    0.00000  # c1,c,c1,c_1
dihedral_coeff	24    0.00000    0.00000    0.03160    0.00000   -0.16810    0.00000  # c1,c,c1,hc
dihedral_coeff	25   -0.02280    0.00000    0.02800    0.00000   -0.18630    0.00000  # c_1,c1,c,hc
dihedral_coeff	26    0.00000    0.00000    0.00000    0.00000   -0.19320    0.00000  # c_1,o_2,c,hc
dihedral_coeff	27    8.36670    0.00000    1.19320    0.00000    0.00000    0.00000  # cp,cp,cp,cp
dihedral_coeff	28    0.00000    0.00000    3.96610    0.00000    0.00000    0.00000  # cp,cp,cp,hc
dihedral_coeff	29    0.00000    0.00000    4.84980    0.00000    0.00000    0.00000  # cp,cp,cp,oc
dihedral_coeff	30    0.95130    0.00000    0.11550    0.00000    0.07200    0.00000  # cp,oc,c,hc
dihedral_coeff	31   -0.14320    0.00000    0.06170    0.00000   -0.10830    0.00000  # hc,c,c,hc
dihedral_coeff	32   -0.21790    0.00000   -0.41270    0.00000   -0.12520    0.00000  # hc,c,c,n4
dihedral_coeff	33    0.00000    0.00000    0.00000    0.00000   -0.25000    0.00000  # hc,c,c,o_2
dihedral_coeff	34   -0.14350    0.00000    0.25300    0.00000   -0.09050    0.00000  # hc,c,c,oc
dihedral_coeff	35   -0.14350    0.00000    0.25300    0.00000   -0.09050    0.00000  # hc,c,c,oh
dihedral_coeff	36   -2.59990    0.00000    1.04880    0.00000   -0.20890    0.00000  # hc,c,c-,o-
dihedral_coeff	37   -0.14320    0.00000    0.06170    0.00000   -0.10830    0.00000  # hc,c,c1,hc
dihedral_coeff	38    0.18630    0.00000   -0.43380    0.00000   -0.21210    0.00000  # hc,c,oh,ho
dihedral_coeff	39   -0.18040    0.00000    0.00120    0.00000    0.03710    0.00000  # hc,c1,c_1,o_1
dihedral_coeff	40   -0.63590    0.00000    1.48070    0.00000   -0.04380    0.00000  # hc,c1,c_1,o_2
dihedral_coeff	41    0.00000    0.00000    1.87690    0.00000    0.00000    0.00000  # hc,cp,cp,hc
dihedral_coeff	42    0.00000    0.00000    1.72340    0.00000    0.00000    0.00000  # hc,cp,cp,oc
dihedral_coeff	43    0.00000    0.00000    0.00000    0.00000    0.15800  180.00000  # n4,c,c,o_2
dihedral_coeff	44    0.00000    0.00000    0.00000    0.00000    0.15800  180.00000  # o_2,c,c,oc
dihedral_coeff	45    0.00000    0.00000    0.00000    0.00000    0.15800  180.00000  # o_2,c,c,oh

# MiddleBondTorsion Coeffs

dihedral_coeff	 1 mbt  -17.78700   -7.18770    0.00000    1.53000  # c,c,c,c
dihedral_coeff	 2 mbt  -14.87900   -3.65810   -0.31380    1.53000  # c,c,c,hc
dihedral_coeff	 3 mbt    0.00000    0.00000    0.00000    1.53000  # c,c,c,o_2
dihedral_coeff	 4 mbt    0.67980    0.93880   -1.84780    1.54830  # c,c,c-,o-
dihedral_coeff	 5 mbt  -17.78700   -7.18770    0.00000    1.53000  # c,c,c1,c
dihedral_coeff	 6 mbt   -1.59450    0.22670   -0.69110    1.53000  # c,c,c1,c_1
dihedral_coeff	 7 mbt  -14.87900   -3.65810   -0.31380    1.53000  # c,c,c1,hc
dihedral_coeff	 8 mbt    6.25790   -5.08180    6.05110    1.51850  # c,c,n4,c
dihedral_coeff	 9 mbt   -5.43500    0.00000    0.00000    1.43000  # c,c,o_2,c_1
dihedral_coeff	10 mbt    0.00000    0.00000    0.00000    1.42000  # c,c,oc,cp
dihedral_coeff	11 mbt    1.24720    0.00000    0.74850    1.42000  # c,c,oh,ho
dihedral_coeff	12 mbt  -17.78700   -7.18770    0.00000    1.53000  # c,c1,c,c1
dihedral_coeff	13 mbt  -14.87900   -3.65810   -0.31380    1.53000  # c,c1,c,hc
dihedral_coeff	14 mbt    0.33880   -0.10960    0.12190    1.52020  # c,c1,c_1,o_1
dihedral_coeff	15 mbt  -17.32800   -5.79000   -3.21140    1.52020  # c,c1,c_1,o_2
dihedral_coeff	16 mbt    0.76300    2.63030   -2.59740    1.51850  # c,n4,c,hc
dihedral_coeff	17 mbt    1.34450    3.55150   -4.92020    1.36830  # c,o_2,c_1,c1
dihedral_coeff	18 mbt    4.26000    0.00000    0.00000    1.36830  # c,o_2,c_1,o_1
dihedral_coeff	19 mbt    0.00000    0.00000    0.00000    1.37680  # c,oc,cp,cp
dihedral_coeff	20 mbt  -13.64200   -0.88430    0.21180    1.53000  # c-,c,c,hc
dihedral_coeff	21 mbt    0.00000    0.00000    0.00000    1.53000  # c-,c,c,o_2
dihedral_coeff	22 mbt  -14.87900   -3.65810   -0.31380    1.53000  # c1,c,c,hc
dihedral_coeff	23 mbt   -1.59450    0.22670   -0.69110    1.53000  # c1,c,c1,c_1
dihedral_coeff	24 mbt  -14.87900   -3.65810   -0.31380    1.53000  # c1,c,c1,hc
dihedral_coeff	25 mbt   -3.50390    1.24580   -0.76100    1.53000  # c_1,c1,c,hc
dihedral_coeff	26 mbt    0.00000    0.00000    0.00000    1.43000  # c_1,o_2,c,hc
dihedral_coeff	27 mbt   27.59890   -2.31200    0.00000    1.41700  # cp,cp,cp,cp
dihedral_coeff	28 mbt    0.00000   -1.15210    0.00000    1.41700  # cp,cp,cp,hc
dihedral_coeff	29 mbt    0.00000    4.82550    0.00000    1.41700  # cp,cp,cp,oc
dihedral_coeff	30 mbt    0.00000    0.00000    0.00000    1.42000  # cp,oc,c,hc
dihedral_coeff	31 mbt  -14.26100   -0.53220   -0.48640    1.53000  # hc,c,c,hc
dihedral_coeff	32 mbt   -9.88260   -3.71380   -0.10220    1.53000  # hc,c,c,n4
dihedral_coeff	33 mbt    0.00000    0.00000    0.00000    1.53000  # hc,c,c,o_2
dihedral_coeff	34 mbt  -16.79750   -1.22960   -0.27500    1.53000  # hc,c,c,oc
dihedral_coeff	35 mbt  -16.79750   -1.22960   -0.27500    1.53000  # hc,c,c,oh
dihedral_coeff	36 mbt   -5.70090    0.77580   -0.40900    1.54830  # hc,c,c-,o-
dihedral_coeff	37 mbt  -14.26100   -0.53220   -0.48640    1.53000  # hc,c,c1,hc
dihedral_coeff	38 mbt    0.00000    0.92410   -0.58890    1.42000  # hc,c,oh,ho
dihedral_coeff	39 mbt    0.23590    0.91390    0.95940    1.52020  # hc,c1,c_1,o_1
dihedral_coeff	40 mbt  -13.76860   -2.59590    1.19340    1.52020  # hc,c1,c_1,o_2
dihedral_coeff	41 mbt    0.00000    4.82280    0.00000    1.41700  # hc,cp,cp,hc
dihedral_coeff	42 mbt    0.00000    5.54320    0.00000    1.41700  # hc,cp,cp,oc
dihedral_coeff	43 mbt    0.00000    0.00000    0.00000    1.53000  # n4,c,c,o_2
dihedral_coeff	44 mbt    0.00000    0.00000    0.00000    1.53000  # o_2,c,c,oc
dihedral_coeff	45 mbt    0.00000    0.00000    0.00000    1.53000  # o_2,c,c,oh

# EndBondTorsion Coeffs

dihedral_coeff	 1 ebt   -0.07320    0.00000    0.00000   -0.07320    0.00000    0.00000    1.53000    1.53000  # c,c,c,c
dihedral_coeff	 2 ebt    0.24860    0.24220   -0.09250    0.08140    0.05910    0.22190    1.53000    1.10100  # c,c,c,hc
dihedral_coeff	 3 ebt    0.00000    0.00000    0.00000    0.00000    0.00000    0.00000    1.53000    1.43000  # c,c,c,o_2
dihedral_coeff	 4 ebt    0.00000    0.00000    0.00000    0.00000    0.00000    0.00000    1.53000    1.23390  # c,c,c-,o-
dihedral_coeff	 5 ebt   -0.07320    0.00000    0.00000   -0.07320    0.00000    0.00000    1.53000    1.53000  # c,c,c1,c
dihedral_coeff	 6 ebt    0.00620   -0.00020    0.00360    0.00550    0.00600   -0.00090    1.53000    1.52020  # c,c,c1,c_1
dihedral_coeff	 7 ebt    0.24860    0.24220   -0.09250    0.08140    0.05910    0.22190    1.53000    1.10100  # c,c,c1,hc
dihedral_coeff	 8 ebt    0.00000    0.00000    0.00000    0.00000    0.00000    0.00000    1.53000    1.51850  # c,c,n4,c
dihedral_coeff	 9 ebt    0.00000    0.00000    0.00000    0.00000    0.00000    0.00000    1.53000    1.36830  # c,c,o_2,c_1
dihedral_coeff	10 ebt    0.00000    0.00000    0.00000    0.00000    0.00000    0.00000    1.53000    1.37680  # c,c,oc,cp
dihedral_coeff	11 ebt   -0.58000    0.90040    0.00000    0.00000    0.53430    0.90250    1.53000    0.96500  # c,c,oh,ho
dihedral_coeff	12 ebt   -0.07320    0.00000    0.00000   -0.07320    0.00000    0.00000    1.53000    1.53000  # c,c1,c,c1
dihedral_coeff	13 ebt    0.24860    0.24220   -0.09250    0.08140    0.05910    0.22190    1.53000    1.10100  # c,c1,c,hc
dihedral_coeff	14 ebt    0.26540    0.05030    0.10460   -0.28100    0.08160   -0.15220    1.53000    1.20200  # c,c1,c_1,o_1
dihedral_coeff	15 ebt    0.00000    0.00000    0.00000    0.00000    0.00000    0.00000    1.53000    1.36830  # c,c1,c_1,o_2
dihedral_coeff	16 ebt    0.00000    0.00000    0.00000    0.00000    0.00000    0.00000    1.51850    1.10100  # c,n4,c,hc
dihedral_coeff	17 ebt    0.00000    0.00000    0.00000    0.00000    0.00000    0.00000    1.43000    1.52020  # c,o_2,c_1,c1
dihedral_coeff	18 ebt    0.00000    0.00000    0.00000    0.00000    0.00000    0.00000    1.43000    1.20200  # c,o_2,c_1,o_1
dihedral_coeff	19 ebt    0.00000    0.00000    0.00000    0.00000    0.00000    0.00000    1.42000    1.41700  # c,oc,cp,cp
dihedral_coeff	20 ebt    0.00000    0.00000    0.00000    0.00000    0.00000    0.00000    1.54830    1.10100  # c-,c,c,hc
dihedral_coeff	21 ebt    0.00000    0.00000    0.00000    0.00000    0.00000    0.00000    1.54830    1.43000  # c-,c,c,o_2
dihedral_coeff	22 ebt    0.24860    0.24220   -0.09250    0.08140    0.05910    0.22190    1.53000    1.10100  # c1,c,c,hc
dihedral_coeff	23 ebt    0.00620   -0.00020    0.00360    0.00550    0.00600   -0.00090    1.53000    1.52020  # c1,c,c1,c_1
dihedral_coeff	24 ebt    0.24860    0.24220   -0.09250    0.08140    0.05910    0.22190    1.53000    1.10100  # c1,c,c1,hc
dihedral_coeff	25 ebt   -0.02040    0.36280   -0.44260   -0.00970   -0.03150   -0.07550    1.52020    1.10100  # c_1,c1,c,hc
dihedral_coeff	26 ebt    0.00000    0.00000    0.00000    0.00000    0.00000    0.00000    1.36830    1.10100  # c_1,o_2,c,hc
dihedral_coeff	27 ebt   -0.11850    6.32040    0.00000   -0.11850    6.32040    0.00000    1.41700    1.41700  # cp,cp,cp,cp
dihedral_coeff	28 ebt    0.00000   -6.89580    0.00000    0.00000   -0.46690    0.00000    1.41700    1.09820  # cp,cp,cp,hc
dihedral_coeff	29 ebt    0.00000    0.26550    0.00000    0.00000    4.89050    0.00000    1.41700    1.37680  # cp,cp,cp,oc
dihedral_coeff	30 ebt    0.00000    0.00000    0.00000    0.00000    0.00000    0.00000    1.37680    1.10100  # cp,oc,c,hc
dihedral_coeff	31 ebt    0.21300    0.31200    0.07770    0.21300    0.31200    0.07770    1.10100    1.10100  # hc,c,c,hc
dihedral_coeff	32 ebt    0.00000    0.00000    0.00000    0.00000    0.00000    0.00000    1.10100    1.51850  # hc,c,c,n4
dihedral_coeff	33 ebt    0.00000    0.00000    0.00000    0.00000    0.00000    0.00000    1.10100    1.43000  # hc,c,c,o_2
dihedral_coeff	34 ebt    0.96810    0.95510    0.04360    0.59030    0.66690    0.85840    1.10100    1.42000  # hc,c,c,oc
dihedral_coeff	35 ebt    0.96810    0.95510    0.04360    0.59030    0.66690    0.85840    1.10100    1.42000  # hc,c,c,oh
dihedral_coeff	36 ebt    0.00000    0.00000    0.00000    0.00000    0.00000    0.00000    1.10100    1.23390  # hc,c,c-,o-
dihedral_coeff	37 ebt    0.21300    0.31200    0.07770    0.21300    0.31200    0.07770    1.10100    1.10100  # hc,c,c1,hc
dihedral_coeff	38 ebt   -1.75540    1.31450    0.22630    0.24930    0.68030    0.00000    1.10100    0.96500  # hc,c,oh,ho
dihedral_coeff	39 ebt    1.21430    0.28310    0.39160   -0.22980    0.03540    0.38530    1.10100    1.20200  # hc,c1,c_1,o_1
dihedral_coeff	40 ebt    0.00000    0.00000    0.00000    0.00000    0.00000    0.00000    1.10100    1.36830  # hc,c1,c_1,o_2
dihedral_coeff	41 ebt    0.00000   -0.68900    0.00000    0.00000   -0.68900    0.00000    1.09820    1.09820  # hc,cp,cp,hc
dihedral_coeff	42 ebt    0.00000   -1.58670    0.00000    0.00000    4.26410    0.00000    1.09820    1.37680  # hc,cp,cp,oc
dihedral_coeff	43 ebt    0.00000    0.00000    0.00000    0.00000    0.00000    0.00000    1.51850    1.43000  # n4,c,c,o_2
dihedral_coeff	44 ebt    0.00000    0.00000    0.00000    0.00000    0.00000    0.00000    1.43000    1.42000  # o_2,c,c,oc
dihedral_coeff	45 ebt    0.00000    0.00000    0.00000    0.00000    0.00000    0.00000    1.43000    1.42000  # o_2,c,c,oh

# AngleTorsion Coeffs

dihedral_coeff	 1 at    0.38860   -0.31390    0.13890    0.38860   -0.31390    0.13890  112.67000  112.67000  # c,c,c,c
dihedral_coeff	 2 at   -0.24540    0.00000   -0.11360    0.31130    0.45160   -0.19880  112.67000  110.77000  # c,c,c,hc
dihedral_coeff	 3 at    0.00000    0.00000    0.00000    0.00000    0.00000    0.00000  112.67000  107.41000  # c,c,c,o_2
dihedral_coeff	 4 at   13.22200    1.32710   -0.39410    2.93330    2.25930   -0.55730  104.49000  115.06000  # c,c,c-,o-
dihedral_coeff	 5 at    0.38860   -0.31390    0.13890    0.38860   -0.31390    0.13890  112.67000  112.67000  # c,c,c1,c
dihedral_coeff	 6 at   -0.26070    0.32030   -0.22830    0.05150   -0.06740   -0.04740  112.67000  108.52950  # c,c,c1,c_1
dihedral_coeff	 7 at   -0.24540    0.00000   -0.11360    0.31130    0.45160   -0.19880  112.67000  110.77000  # c,c,c1,hc
dihedral_coeff	 8 at   -1.28770    4.80560    1.14810   -3.76820    2.74640   -1.62720  112.13000  109.77000  # c,c,n4,c
dihedral_coeff	 9 at    0.00000    0.00000    0.00000    0.00000    0.00000    0.00000  107.41000  113.28800  # c,c,o_2,c_1
dihedral_coeff	10 at    0.00000    0.00000    0.00000    0.00000    0.00000    0.00000  111.27000  102.96950  # c,c,oc,cp
dihedral_coeff	11 at   -3.59030    2.52250    0.48880    0.87260   -0.35770    0.38880  111.27000  105.80000  # c,c,oh,ho
dihedral_coeff	12 at    0.38860   -0.31390    0.13890    0.38860   -0.31390    0.13890  112.67000  112.67000  # c,c1,c,c1
dihedral_coeff	13 at   -0.24540    0.00000   -0.11360    0.31130    0.45160   -0.19880  112.67000  110.77000  # c,c1,c,hc
dihedral_coeff	14 at    0.08850   -1.37030   -0.54520    0.67500    0.59650    0.67250  108.52950  123.14510  # c,c1,c_1,o_1
dihedral_coeff	15 at    0.00000    0.00000    0.00000    0.00000    0.00000    0.00000  108.52950  100.31820  # c,c1,c_1,o_2
dihedral_coeff	16 at    1.68400    0.40870    0.42930   -0.08390    1.54770   -0.22840  109.77000  105.85000  # c,n4,c,hc
dihedral_coeff	17 at    0.00000    0.00000    0.00000    0.00000    0.00000    0.00000  113.28800  100.31820  # c,o_2,c_1,c1
dihedral_coeff	18 at    0.00000    0.00000    0.00000    0.00000    0.00000    0.00000  113.28800  120.79700  # c,o_2,c_1,o_1
dihedral_coeff	19 at    0.00000    0.00000    0.00000    0.00000    0.00000    0.00000  102.96950  123.42000  # c,oc,cp,cp
dihedral_coeff	20 at    1.65750   -0.45770    0.36100    3.93180    2.22350    0.36700  104.49000  110.77000  # c-,c,c,hc
dihedral_coeff	21 at    0.00000    0.00000    0.00000    0.00000    0.00000    0.00000  104.49000  107.41000  # c-,c,c,o_2
dihedral_coeff	22 at   -0.24540    0.00000   -0.11360    0.31130    0.45160   -0.19880  112.67000  110.77000  # c1,c,c,hc
dihedral_coeff	23 at   -0.26070    0.32030   -0.22830    0.05150   -0.06740   -0.04740  112.67000  108.52950  # c1,c,c1,c_1
dihedral_coeff	24 at   -0.24540    0.00000   -0.11360    0.31130    0.45160   -0.19880  112.67000  110.77000  # c1,c,c1,hc
dihedral_coeff	25 at   -0.74660   -0.94480   -0.63210    0.01620    1.42110   -1.40920  108.52950  110.77000  # c_1,c1,c,hc
dihedral_coeff	26 at    0.00000    0.00000    0.00000    0.00000    0.00000    0.00000  113.28800  107.68800  # c_1,o_2,c,hc
dihedral_coeff	27 at    1.97670    1.02390    0.00000    1.97670    1.02390    0.00000  118.90000  118.90000  # cp,cp,cp,cp
dihedral_coeff	28 at    0.00000    2.50140    0.00000    0.00000    2.71470    0.00000  118.90000  117.94000  # cp,cp,cp,hc
dihedral_coeff	29 at    0.00000   10.01550    0.00000    0.00000    1.74040    0.00000  118.90000  123.42000  # cp,cp,cp,oc
dihedral_coeff	30 at    0.00000    0.00000    0.00000    0.00000    0.00000    0.00000  102.96950  108.72800  # cp,oc,c,hc
dihedral_coeff	31 at   -0.80850    0.55690   -0.24660   -0.80850    0.55690   -0.24660  110.77000  110.77000  # hc,c,c,hc
dihedral_coeff	32 at   -3.41090    0.64760   -0.95840   -2.86940    1.61720   -1.46270  110.77000  112.13000  # hc,c,c,n4
dihedral_coeff	33 at    0.00000    0.00000    0.00000    0.00000    0.00000    0.00000  110.77000  107.41000  # hc,c,c,o_2
dihedral_coeff	34 at    2.36680    2.49200   -1.01220   -0.18920    0.49180    0.72730  110.77000  111.27000  # hc,c,c,oc
dihedral_coeff	35 at    2.36680    2.49200   -1.01220   -0.18920    0.49180    0.72730  110.77000  111.27000  # hc,c,c,oh
dihedral_coeff	36 at   12.07200    0.23880   -0.04260   -4.28250    1.12540   -0.14810  109.67000  115.06000  # hc,c,c-,o-
dihedral_coeff	37 at   -0.80850    0.55690   -0.24660   -0.80850    0.55690   -0.24660  110.77000  110.77000  # hc,c,c1,hc
dihedral_coeff	38 at   -3.40600    1.63960    0.07370    0.00000   -0.28100   -0.59440  108.72800  105.80000  # hc,c,oh,ho
dihedral_coeff	39 at    9.12990   -0.48470    0.35820   -1.49460    0.73080   -0.20830  107.73360  123.14510  # hc,c1,c_1,o_1
dihedral_coeff	40 at    0.00000    0.00000    0.00000    0.00000    0.00000    0.00000  107.73360  100.31820  # hc,c1,c_1,o_2
dihedral_coeff	41 at    0.00000    2.45010    0.00000    0.00000    2.45010    0.00000  117.94000  117.94000  # hc,cp,cp,hc
dihedral_coeff	42 at    0.00000    1.87290    0.00000    0.00000    2.57060    0.00000  117.94000  123.42000  # hc,cp,cp,oc
dihedral_coeff	43 at    0.00000    0.00000    0.00000    0.00000    0.00000    0.00000  112.13000  107.41000  # n4,c,c,o_2
dihedral_coeff	44 at    0.00000    0.00000    0.00000    0.00000    0.00000    0.00000  107.41000  111.27000  # o_2,c,c,oc
dihedral_coeff	45 at    0.00000    0.00000    0.00000    0.00000    0.00000    0.00000  107.41000  111.27000  # o_2,c,c,oh

# AngleAngleTorsion Coeffs

dihedral_coeff	 1 aat  -22.04500  112.67000  112.67000  # c,c,c,c
dihedral_coeff	 2 aat  -16.16400  112.67000  110.77000  # c,c,c,hc
dihedral_coeff	 3 aat    0.00000  112.67000  107.41000  # c,c,c,o_2
dihedral_coeff	 4 aat  -28.74200  104.49000  115.06000  # c,c,c-,o-
dihedral_coeff	 5 aat  -22.04500  112.67000  112.67000  # c,c,c1,c
dihedral_coeff	 6 aat   -0.38010  112.67000  108.52950  # c,c,c1,c_1
dihedral_coeff	 7 aat  -16.16400  112.67000  110.77000  # c,c,c1,hc
dihedral_coeff	 8 aat  -18.15940  112.13000  109.77000  # c,c,n4,c
dihedral_coeff	 9 aat    0.00000  107.41000  113.28800  # c,c,o_2,c_1
dihedral_coeff	10 aat    0.00000  111.27000  102.96950  # c,c,oc,cp
dihedral_coeff	11 aat  -12.10380  111.27000  105.80000  # c,c,oh,ho
dihedral_coeff	12 aat  -22.04500  112.67000  112.67000  # c,c1,c,c1
dihedral_coeff	13 aat  -16.16400  112.67000  110.77000  # c,c1,c,hc
dihedral_coeff	14 aat   -8.01900  108.52950  123.14510  # c,c1,c_1,o_1
dihedral_coeff	15 aat    0.00000  108.52950  100.31820  # c,c1,c_1,o_2
dihedral_coeff	16 aat  -14.04430  109.77000  105.85000  # c,n4,c,hc
dihedral_coeff	17 aat    0.00000  113.28800  100.31820  # c,o_2,c_1,c1
dihedral_coeff	18 aat    0.00000  113.28800  120.79700  # c,o_2,c_1,o_1
dihedral_coeff	19 aat    0.00000  102.96950  123.42000  # c,oc,cp,cp
dihedral_coeff	20 aat  -15.60700  104.49000  110.77000  # c-,c,c,hc
dihedral_coeff	21 aat    0.00000  104.49000  107.41000  # c-,c,c,o_2
dihedral_coeff	22 aat  -16.16400  112.67000  110.77000  # c1,c,c,hc
dihedral_coeff	23 aat   -0.38010  112.67000  108.52950  # c1,c,c1,c_1
dihedral_coeff	24 aat  -16.16400  112.67000  110.77000  # c1,c,c1,hc
dihedral_coeff	25 aat   -5.36240  108.52950  110.77000  # c_1,c1,c,hc
dihedral_coeff	26 aat    0.00000  113.28800  107.68800  # c_1,o_2,c,hc
dihedral_coeff	27 aat    0.00000  118.90000  118.90000  # cp,cp,cp,cp
dihedral_coeff	28 aat   -4.81410  118.90000  117.94000  # cp,cp,cp,hc
dihedral_coeff	29 aat  -21.02470  118.90000  123.42000  # cp,cp,cp,oc
dihedral_coeff	30 aat    0.00000  102.96950  108.72800  # cp,oc,c,hc
dihedral_coeff	31 aat  -12.56400  110.77000  110.77000  # hc,c,c,hc
dihedral_coeff	32 aat  -18.92630  110.77000  112.13000  # hc,c,c,n4
dihedral_coeff	33 aat    0.00000  110.77000  107.41000  # hc,c,c,o_2
dihedral_coeff	34 aat  -20.20060  110.77000  111.27000  # hc,c,c,oc
dihedral_coeff	35 aat  -20.20060  110.77000  111.27000  # hc,c,c,oh
dihedral_coeff	36 aat  -19.45700  109.67000  115.06000  # hc,c,c-,o-
dihedral_coeff	37 aat  -12.56400  110.77000  110.77000  # hc,c,c1,hc
dihedral_coeff	38 aat  -10.50930  108.72800  105.80000  # hc,c,oh,ho
dihedral_coeff	39 aat  -15.34960  107.73360  123.14510  # hc,c1,c_1,o_1
dihedral_coeff	40 aat    0.00000  107.73360  100.31820  # hc,c1,c_1,o_2
dihedral_coeff	41 aat    0.35980  117.94000  117.94000  # hc,cp,cp,hc
dihedral_coeff	42 aat    4.22960  117.94000  123.42000  # hc,cp,cp,oc
dihedral_coeff	43 aat    0.00000  112.13000  107.41000  # n4,c,c,o_2
dihedral_coeff	44 aat    0.00000  107.41000  111.27000  # o_2,c,c,oc
dihedral_coeff	45 aat    0.00000  107.41000  111.27000  # o_2,c,c,oh

# BondBond13 Coeffs

dihedral_coeff	 1 bb13    0.00000    1.53000    1.53000  # c,c,c,c
dihedral_coeff	 2 bb13    0.00000    1.53000    1.10100  # c,c,c,hc
dihedral_coeff	 3 bb13    0.00000    1.53000    1.43000  # c,c,c,o_2
dihedral_coeff	 4 bb13    0.00000    1.53000    1.23390  # c,c,c-,o-
dihedral_coeff	 5 bb13    0.00000    1.53000    1.53000  # c,c,c1,c
dihedral_coeff	 6 bb13    0.00000    1.53000    1.52020  # c,c,c1,c_1
dihedral_coeff	 7 bb13    0.00000    1.53000    1.10100  # c,c,c1,hc
dihedral_coeff	 8 bb13    0.00000    1.53000    1.51850  # c,c,n4,c
dihedral_coeff	 9 bb13    0.00000    1.53000    1.36830  # c,c,o_2,c_1
dihedral_coeff	10 bb13    0.00000    1.53000    1.37680  # c,c,oc,cp
dihedral_coeff	11 bb13    0.00000    1.53000    0.96500  # c,c,oh,ho
dihedral_coeff	12 bb13    0.00000    1.53000    1.53000  # c,c1,c,c1
dihedral_coeff	13 bb13    0.00000    1.53000    1.10100  # c,c1,c,hc
dihedral_coeff	14 bb13    0.00000    1.53000    1.20200  # c,c1,c_1,o_1
dihedral_coeff	15 bb13    0.00000    1.53000    1.36830  # c,c1,c_1,o_2
dihedral_coeff	16 bb13    0.00000    1.51850    1.10100  # c,n4,c,hc
dihedral_coeff	17 bb13    0.00000    1.43000    1.52020  # c,o_2,c_1,c1
dihedral_coeff	18 bb13    0.00000    1.43000    1.20200  # c,o_2,c_1,o_1
dihedral_coeff	19 bb13    0.00000    1.42000    1.41700  # c,oc,cp,cp
dihedral_coeff	20 bb13    0.00000    1.54830    1.10100  # c-,c,c,hc
dihedral_coeff	21 bb13    0.00000    1.54830    1.43000  # c-,c,c,o_2
dihedral_coeff	22 bb13    0.00000    1.53000    1.10100  # c1,c,c,hc
dihedral_coeff	23 bb13    0.00000    1.53000    1.52020  # c1,c,c1,c_1
dihedral_coeff	24 bb13    0.00000    1.53000    1.10100  # c1,c,c1,hc
dihedral_coeff	25 bb13    0.00000    1.52020    1.10100  # c_1,c1,c,hc
dihedral_coeff	26 bb13    0.00000    1.36830    1.10100  # c_1,o_2,c,hc
dihedral_coeff	27 bb13   53.00000    1.41700    1.41700  # cp,cp,cp,cp
dihedral_coeff	28 bb13   -6.27410    1.41700    1.09820  # cp,cp,cp,hc
dihedral_coeff	29 bb13   -2.24360    1.41700    1.37680  # cp,cp,cp,oc
dihedral_coeff	30 bb13    0.00000    1.37680    1.10100  # cp,oc,c,hc
dihedral_coeff	31 bb13    0.00000    1.10100    1.10100  # hc,c,c,hc
dihedral_coeff	32 bb13    0.00000    1.10100    1.51850  # hc,c,c,n4
dihedral_coeff	33 bb13    0.00000    1.10100    1.43000  # hc,c,c,o_2
dihedral_coeff	34 bb13    0.00000    1.10100    1.42000  # hc,c,c,oc
dihedral_coeff	35 bb13    0.00000    1.10100    1.42000  # hc,c,c,oh
dihedral_coeff	36 bb13    0.00000    1.10100    1.23390  # hc,c,c-,o-
dihedral_coeff	37 bb13    0.00000    1.10100    1.10100  # hc,c,c1,hc
dihedral_coeff	38 bb13    0.00000    1.10100    0.96500  # hc,c,oh,ho
dihedral_coeff	39 bb13    0.00000    1.10100    1.20200  # hc,c1,c_1,o_1
dihedral_coeff	40 bb13    0.00000    1.10100    1.36830  # hc,c1,c_1,o_2
dihedral_coeff	41 bb13   -1.70770    1.09820    1.09820  # hc,cp,cp,hc
dihedral_coeff	42 bb13    2.05170    1.09820    1.37680  # hc,cp,cp,oc
dihedral_coeff	43 bb13    0.00000    1.51850    1.43000  # n4,c,c,o_2
dihedral_coeff	44 bb13    0.00000    1.43000    1.42000  # o_2,c,c,oc
dihedral_coeff	45 bb13    0.00000    1.43000    1.42000  # o_2,c,c,oh

# Improper Coeffs

improper_coeff	 1    0.00000    0.00000  # c,c,c,hc
improper_coeff	 2    0.00000    0.00000  # c,c,c-,hc
improper_coeff	 3    0.00000    0.00000  # c,c,c1,hc
improper_coeff	 4    0.00000    0.00000  # c,c,hc,hc
improper_coeff	 5    0.00000    0.00000  # c,c,hc,o_2
improper_coeff	 6    0.00000    0.00000  # c,c,n4,hc
improper_coeff	 7    0.00000    0.00000  # c,c,oc,hc
improper_coeff	 8    0.00000    0.00000  # c,c,oh,hc
improper_coeff	 9    0.00000    0.00000  # c,c-,hc,hc
improper_coeff	10    0.00000    0.00000  # c,c1,c1,hc
improper_coeff	11    0.00000    0.00000  # c,c1,hc,hc
improper_coeff	12    0.00000    0.00000  # c,hc,hc,hc
improper_coeff	13    0.00000    0.00000  # c,hc,hc,n4
improper_coeff	14    0.00000    0.00000  # c,hc,hc,o_2
improper_coeff	15    0.00000    0.00000  # c,hc,hc,oc
improper_coeff	16    0.00000    0.00000  # c,hc,hc,oh
improper_coeff	17   44.15000    0.00000  # c-,c,o-,o-
improper_coeff	18    0.00000    0.00000  # c1,c,c,c_1
improper_coeff	19    0.00000    0.00000  # c1,c,c,hc
improper_coeff	20    0.00000    0.00000  # c1,c,c_1,hc
improper_coeff	21   46.92640    0.00000  # c_1,c1,o_2,o_1
improper_coeff	22    4.89120    0.00000  # cp,cp,cp,hc
improper_coeff	23   13.04210    0.00000  # cp,cp,cp,oc
improper_coeff	24    0.00000    0.00000  # n4,c,c,c

# AngleAngle Coeffs

improper_coeff	 1 aa   -1.31990   -1.31990    0.11840  112.67000  110.77000  110.77000  # c,c,c,hc
improper_coeff	 2 aa   -0.04140   -1.00330    2.45940  104.49000  110.77000  109.67000  # c,c,c-,hc
improper_coeff	 3 aa   -1.31990   -1.31990    0.11840  112.67000  110.77000  110.77000  # c,c,c1,hc
improper_coeff	 4 aa    0.27380   -0.48250    0.27380  110.77000  110.77000  107.66000  # c,c,hc,hc
improper_coeff	 5 aa    0.00000    0.00000    0.00000  110.77000  107.41000  107.68800  # c,c,hc,o_2
improper_coeff	 6 aa    7.02920    6.02740    4.24400  112.13000  110.77000  105.85000  # c,c,n4,hc
improper_coeff	 7 aa    0.16890    2.59260    3.91770  111.27000  110.77000  108.72800  # c,c,oc,hc
improper_coeff	 8 aa    0.16890    2.59260    3.91770  111.27000  110.77000  108.72800  # c,c,oh,hc
improper_coeff	 9 aa    2.72540   -1.80860    2.72540  109.67000  109.67000  107.66000  # c,c-,hc,hc
improper_coeff	10 aa   -1.31990   -1.31990    0.11840  112.67000  110.77000  110.77000  # c,c1,c1,hc
improper_coeff	11 aa    0.27380   -0.48250    0.27380  110.77000  110.77000  107.66000  # c,c1,hc,hc
improper_coeff	12 aa   -0.31570   -0.31570   -0.31570  107.66000  107.66000  107.66000  # c,hc,hc,hc
improper_coeff	13 aa    3.54750    3.54750    7.33650  107.66000  105.85000  105.85000  # c,hc,hc,n4
improper_coeff	14 aa    0.00000    0.00000    0.00000  107.66000  107.68800  107.68800  # c,hc,hc,o_2
improper_coeff	15 aa    2.42590    2.42590    2.12830  107.66000  108.72800  108.72800  # c,hc,hc,oc
improper_coeff	16 aa    2.42590    2.42590    2.12830  107.66000  108.72800  108.72800  # c,hc,hc,oh
improper_coeff	17 aa    0.00000    0.00000    0.00000  115.06000  115.06000  130.01000  # c-,c,o-,o-
improper_coeff	18 aa    0.00000    0.00000    0.00000  112.67000  108.52950  108.52950  # c1,c,c,c_1
improper_coeff	19 aa   -1.31990   -1.31990    0.11840  112.67000  110.77000  110.77000  # c1,c,c,hc
improper_coeff	20 aa    2.04030   -1.82020    1.08270  108.52950  110.77000  107.73360  # c1,c,c_1,hc
improper_coeff	21 aa    0.00000    0.00000    0.00000  100.31820  123.14510  120.79700  # c_1,c1,o_2,o_1
improper_coeff	22 aa    0.00000    0.00000    0.00000  118.90000  117.94000  117.94000  # cp,cp,cp,hc
improper_coeff	23 aa    0.00000    0.00000    0.00000  118.90000  123.42000  123.42000  # cp,cp,cp,oc
improper_coeff	24 aa   -1.51550   -1.51550   -1.51550  109.77000  109.77000  109.77000  # n4,c,c,c

pair_modify     tail no
variable        ZHALF   equal 40.0     # половина целевой толщины плёнки, A
variable        ZBOX    equal 160.0    # полувысота ячейки (вакуум), A
variable        NZBOX   equal "-v_ZBOX"
variable        NZHALF  equal "-v_ZHALF"
variable        SOFTCUT equal 3.0
variable        SOFTA   equal 60.0
variable        NPUSH   equal 150000
variable        NHOLD   equal 50000

neighbor        2.0 bin
neigh_modify    delay 0 every 1 check yes

pair_style      soft $(v_SOFTCUT)
pair_style      soft 3
comm_modify     cutoff 8.0
pair_coeff      * * $(v_SOFTA)
pair_coeff      * * 60
dump            TRJ all custom 10000 dump.soft.lammpstrj.gz id mol type q x y z
min_modify dmax 0.1
min_style cg
minimize 1.0e-4 1.0e-5 5000 50000
Generated 0 of 78 mixed pair_coeff terms from geometric mixing rule
Neighbor list info ...
  update: every = 1 steps, delay = 0 steps, check = yes
  max neighbors/atom: 2000, page size: 100000
  master list distance cutoff = 5
  ghost atom cutoff = 8
  binsize = 5, bins = 17 17 64
  1 neighbor lists, perpetual/occasional/extra = 1 0 0
  (1) pair soft/kk, perpetual
      attributes: full, newton off, kokkos_device
      pair build: full/bin/kk/device
      stencil: full/bin/3d
      bin: kk/device
WARNING: Fix MINIMIZE/kk not compatible with sending data in Kokkos communication (src/KOKKOS/comm_kokkos.cpp:799)
WARNING: Fix with atom-based arrays not compatible with sending data in Kokkos communication, switching to classic exchange/border communication (src/KOKKOS/comm_kokkos.cpp:812)
WARNING: Fix MINIMIZE/kk not compatible with Kokkos sorting on device (src/KOKKOS/atom_kokkos.cpp:213)
WARNING: Fix with atom-based arrays not compatible with Kokkos sorting on device, switching to classic host sorting (src/KOKKOS/atom_kokkos.cpp:219)
Per MPI rank memory allocation (min/avg/max) = 94.76 | 94.76 | 94.76 Mbytes
   Step          Temp          E_pair         E_mol          TotEng         Press     
         0   0              1078195.6      89976.341      1168172        88165.013    
       492   0              162860.49      137293.19      300153.68      17062.302    
Loop time of 4.10532 on 1 procs for 492 steps with 38466 atoms

84.6% CPU use with 1 MPI tasks x 1 OpenMP threads

Minimization stats:
  Stopping criterion = energy tolerance
  Energy initial, next-to-last, final = 
      1168171.95675739    300158.42130412   300153.681616571
  Force two-norm initial, final = 15893.938 2652.3965
  Force max component initial, final = 986.91744 1881.6204
  Final line search alpha, max atom move = 2.0401267e-05 0.03838744
  Iterations, force evaluations = 492 505

MPI task timing breakdown:
Section |  min time  |  avg time  |  max time  |%varavg| %total
---------------------------------------------------------------
Pair    | 1.1535     | 1.1535     | 1.1535     |   0.0 | 28.10
Bond    | 2.0055     | 2.0055     | 2.0055     |   0.0 | 48.85
Neigh   | 0.32718    | 0.32718    | 0.32718    |   0.0 |  7.97
Comm    | 0.16       | 0.16       | 0.16       |   0.0 |  3.90
Output  | 0          | 0          | 0          |   0.0 |  0.00
Modify  | 0          | 0          | 0          |   0.0 |  0.00
Other   |            | 0.4592     |            |       | 11.18

Nlocal:          38466 ave       38466 max       38466 min
Histogram: 1 0 0 0 0 0 0 0 0 0
Nghost:          12923 ave       12923 max       12923 min
Histogram: 1 0 0 0 0 0 0 0 0 0
Neighs:              0 ave           0 max           0 min
Histogram: 1 0 0 0 0 0 0 0 0 0
FullNghs:  1.39444e+06 ave 1.39444e+06 max 1.39444e+06 min
Histogram: 1 0 0 0 0 0 0 0 0 0

Total # of neighbors = 1394442
Ave neighs/atom = 36.251287
Ave special neighs/atom = 5.766963
Neighbor list builds = 13
Dangerous builds = 0
min_style cg
minimize 1.0e-8 1.0e-10 20000 200000
Generated 0 of 78 mixed pair_coeff terms from geometric mixing rule
WARNING: Fix MINIMIZE/kk not compatible with Kokkos sorting on device (src/KOKKOS/atom_kokkos.cpp:213)
WARNING: Fix with atom-based arrays not compatible with Kokkos sorting on device, switching to classic host sorting (src/KOKKOS/atom_kokkos.cpp:219)
Per MPI rank memory allocation (min/avg/max) = 100.5 | 100.5 | 100.5 Mbytes
   Step          Temp          E_pair         E_mol          TotEng         Press     
       492   0              162860.49      137293.19      300153.68      17062.302    
       907   0              118272.33      126690.96      244963.3       10024.648    
Loop time of 4.91439 on 1 procs for 415 steps with 38466 atoms

92.8% CPU use with 1 MPI tasks x 1 OpenMP threads

Minimization stats:
  Stopping criterion = energy tolerance
  Energy initial, next-to-last, final = 
      300153.681616571   244963.298086633   244963.295983747
  Force two-norm initial, final = 2652.3965 2002.022
  Force max component initial, final = 1881.6204 1203.0951
  Final line search alpha, max atom move = 2.0044172e-07 0.00024115046
  Iterations, force evaluations = 415 775

MPI task timing breakdown:
Section |  min time  |  avg time  |  max time  |%varavg| %total
---------------------------------------------------------------
Pair    | 1.3361     | 1.3361     | 1.3361     |   0.0 | 27.19
Bond    | 2.7389     | 2.7389     | 2.7389     |   0.0 | 55.73
Neigh   | 0.23133    | 0.23133    | 0.23133    |   0.0 |  4.71
Comm    | 0.13805    | 0.13805    | 0.13805    |   0.0 |  2.81
Output  | 0          | 0          | 0          |   0.0 |  0.00
Modify  | 0          | 0          | 0          |   0.0 |  0.00
Other   |            | 0.47       |            |       |  9.56

Nlocal:          38466 ave       38466 max       38466 min
Histogram: 1 0 0 0 0 0 0 0 0 0
Nghost:          13262 ave       13262 max       13262 min
Histogram: 1 0 0 0 0 0 0 0 0 0
Neighs:              0 ave           0 max           0 min
Histogram: 1 0 0 0 0 0 0 0 0 0
FullNghs:  1.29471e+06 ave 1.29471e+06 max 1.29471e+06 min
Histogram: 1 0 0 0 0 0 0 0 0 0

Total # of neighbors = 1294706
Ave neighs/atom = 33.658452
Ave special neighs/atom = 5.766963
Neighbor list builds = 10
Dangerous builds = 0

timestep        0.1
fix             1 all nve/limit 0.05
fix             2 all viscous 50.0
fix             3 all dt/reset 1 NULL 0.001 0.1
thermo          1000
run             10000
Generated 0 of 78 mixed pair_coeff terms from geometric mixing rule
Per MPI rank memory allocation (min/avg/max) = 97.86 | 97.86 | 97.86 Mbytes
   Step          Temp          E_pair         E_mol          TotEng         Press     
       907   0              118272.33      126690.96      244963.3       10024.648    
      1000   0.013234502    118272.3       126689.48      244963.29      10024.691    
      2000   0.10454446     118266.79      126684.38      244963.15      10023.988    
      3000   0.28603782     118252.98      126676.78      244962.56      10022.013    
      4000   0.46565111     118233.23      126674.68      244961.3       10018.851    
      5000   0.6236945      118210.25      126677.57      244959.33      10014.899    
      6000   0.7844768      118186.3       126680.47      244956.72      10010.471    
      7000   0.97510769     118163.24      126678.52      244953.56      10006.094    
      8000   1.2068051      118141.42      126670.16      244949.95      10002.454    
      9000   1.4341421      118120.42      126661.11      244945.97      9999.654     
     10000   1.6520792      118098.82      126653.49      244941.73      9997.8358    
     10907   1.8551297      118077.19      126647.8       244937.7       9996.6876    
Loop time of 90.4011 on 1 procs for 10000 steps with 38466 atoms

Performance: 0.010 ns/day, 2511.142 hours/ns, 110.618 timesteps/s, 4.255 Matom-step/s
91.3% CPU use with 1 MPI tasks x 1 OpenMP threads

MPI task timing breakdown:
Section |  min time  |  avg time  |  max time  |%varavg| %total
---------------------------------------------------------------
Pair    | 0.42644    | 0.42644    | 0.42644    |   0.0 |  0.47
Bond    | 68.464     | 68.464     | 68.464     |   0.0 | 75.73
Neigh   | 0          | 0          | 0          |   0.0 |  0.00
Comm    | 0.14279    | 0.14279    | 0.14279    |   0.0 |  0.16
Output  | 0.31001    | 0.31001    | 0.31001    |   0.0 |  0.34
Modify  | 17.734     | 17.734     | 17.734     |   0.0 | 19.62
Other   |            | 3.324      |            |       |  3.68

Nlocal:          38466 ave       38466 max       38466 min
Histogram: 1 0 0 0 0 0 0 0 0 0
Nghost:          13284 ave       13284 max       13284 min
Histogram: 1 0 0 0 0 0 0 0 0 0
Neighs:              0 ave           0 max           0 min
Histogram: 1 0 0 0 0 0 0 0 0 0
FullNghs:  1.29171e+06 ave 1.29171e+06 max 1.29171e+06 min
Histogram: 1 0 0 0 0 0 0 0 0 0

Total # of neighbors = 1291710
Ave neighs/atom = 33.580565
Ave special neighs/atom = 5.766963
Neighbor list builds = 0
Dangerous builds = 0
# fix_modify      1 energy yes
unfix           1
unfix           2
unfix           3

velocity        all zero linear
velocity        all zero angular

compute         ZMIN all reduce min z
compute         ZMAX all reduce max z
thermo_style    custom step temp press lz pe atoms c_ZMIN c_ZMAX
run             0 post no
WARNING: No fixes with time integration, atoms won't move
For more information see https://docs.lammps.org/err0028 (src/verlet.cpp:60)
Generated 0 of 78 mixed pair_coeff terms from geometric mixing rule
Per MPI rank memory allocation (min/avg/max) = 97.86 | 97.86 | 97.86 Mbytes
   Step          Temp          Press            Lz           PotEng        Atoms        c_ZMIN         c_ZMAX    
     10907   1.85067        9996.6767      320            244725             38466  -45.816724      137.61861    
Loop time of 0.000334878 on 1 procs for 0 steps with 38466 atoms

variable        DZSHIFT equal "-(c_ZMIN+c_ZMAX)/2.0"
displace_atoms  all move 0.0 0.0 $(v_DZSHIFT) units box
displace_atoms  all move 0.0 0.0 -45.900942135368403285 units box
Displacing atoms ...

change_box      all boundary p p f
Changing box ...
run             0 post no
WARNING: No fixes with time integration, atoms won't move
For more information see https://docs.lammps.org/err0028 (src/verlet.cpp:60)
Generated 0 of 78 mixed pair_coeff terms from geometric mixing rule
Per MPI rank memory allocation (min/avg/max) = 97.79 | 97.79 | 97.79 Mbytes
   Step          Temp          Press            Lz           PotEng        Atoms        c_ZMIN         c_ZMAX    
     10907   1.85067        9996.6767      320            244725             38466  -91.717666      91.717666    
Loop time of 0.00118682 on 1 procs for 0 steps with 38466 atoms


variable        ZB0 equal "c_ZMIN-5.0"
variable        ZT0 equal "c_ZMAX+5.0"
variable        ZB0F internal $(v_ZB0)
variable        ZB0F internal -96.717666361819595977
variable        ZT0F internal $(v_ZT0)
variable        ZT0F internal 96.717666361819695453
variable        z_bot equal "ramp(v_ZB0F,v_NZHALF)"
variable        z_top equal "ramp(v_ZT0F,v_ZHALF)"

fix             wall_b all wall/reflect zlo v_z_bot units box
fix             wall_t all wall/reflect zhi v_z_top units box

fix             1 all langevin 300.0 300.0 100.0 48279
fix             2 all nve

variable        film_dens equal "mass(all)/(0.6022141*lx*ly*(2.0*v_ZHALF))"

thermo          2000
thermo_style    custom step temp press lz pe atoms c_ZMIN c_ZMAX v_film_dens
timestep	0.5
run             ${NPUSH}
run             150000
Generated 0 of 78 mixed pair_coeff terms from geometric mixing rule
Per MPI rank memory allocation (min/avg/max) = 97.79 | 97.79 | 97.79 Mbytes
   Step          Temp          Press            Lz           PotEng        Atoms        c_ZMIN         c_ZMAX      v_film_dens  
     10907   1.85067        9996.6767      320            244725             38466  -91.717666      91.717666      0.77546351   
     12000   321.45133      4978.1416      320            233229.15          38466  -92.025301      92.706787      0.77546351   
     14000   303.82482      2816.0754      320            210830.74          38466  -91.534552      93.232819      0.77546351   
     16000   303.53364      2191.5473      320            203425.06          38466  -92.907046      93.57481       0.77546351   
     18000   301.03469      1716.4004      320            198897.52          38466  -94.032494      93.324372      0.77546351   
     20000   300.72134      1543.5337      320            196465.85          38466  -93.234558      92.938995      0.77546351   
     22000   301.44124      1328.5903      320            194434.69          38466  -92.478993      92.421593      0.77546351   
     24000   300.39255      1105.0543      320            192502.1           38466  -91.762902      91.60985       0.77546351   
     26000   299.74383      1146.594       320            191549.4           38466  -90.993929      90.799433      0.77546351   
     28000   301.22161      1175.4361      320            190448.76          38466  -90.235826      90.218006      0.77546351   
     30000   297.30669      1030.0583      320            189431.22          38466  -89.498172      89.493577      0.77546351   
     32000   298.86458      1019.2133      320            188541.62          38466  -88.730718      88.741327      0.77546351   
     34000   300.02426      773.27045      320            188196.18          38466  -87.98474       87.970574      0.77546351   
     36000   301.64092      949.08635      320            187451.54          38466  -87.228564      87.212988      0.77546351   
     38000   301.99772      823.97098      320            186754.19          38466  -86.473061      86.472101      0.77546351   
     40000   298.73945      922.53645      320            186487.52          38466  -85.715355      85.716719      0.77546351   
     42000   299.97933      728.62674      320            186232.85          38466  -84.960387      84.960737      0.77546351   
     44000   300.39711      829.00924      320            185715.96          38466  -84.200382      84.17932       0.77546351   
     46000   303.00408      824.03759      320            185448.34          38466  -83.448104      83.439549      0.77546351   
     48000   299.53073      781.8271       320            184985.38          38466  -82.6918        82.68865       0.77546351   
     50000   300.47819      707.25349      320            184769.1           38466  -81.935798      81.927193      0.77546351   
     52000   301.6365       718.19764      320            184960.36          38466  -81.178838      81.173509      0.77546351   
     54000   298.21994      855.173        320            184038.4           38466  -80.423132      80.423258      0.77546351   
     56000   300.36963      687.25221      320            184087.03          38466  -79.665815      79.662412      0.77546351   
     58000   298.34294      790.86546      320            183597.09          38466  -78.908165      78.899649      0.77546351   
     60000   301.07631      886.36219      320            184006.93          38466  -78.15181       78.149286      0.77546351   
     62000   299.33208      774.47139      320            183922.11          38466  -77.398094      77.390972      0.77546351   
     64000   299.1728       810.18528      320            183474.27          38466  -76.641862      76.626083      0.77546351   
     66000   298.89041      779.17978      320            183538.85          38466  -75.886022      75.884877      0.77546351   
     68000   300.42724      785.73871      320            183435.73          38466  -75.129366      75.128835      0.77546351   
     70000   300.79699      830.69         320            183585.15          38466  -74.372963      74.37216       0.77546351   
     72000   300.80711      958.05892      320            183332.93          38466  -73.61691       73.613499      0.77546351   
     74000   300.25725      882.18963      320            183057.45          38466  -72.861019      72.86044       0.77546351   
     76000   302.38772      869.3464       320            183603.15          38466  -72.104821      72.104155      0.77546351   
     78000   298.81815      921.61827      320            183492.05          38466  -71.348582      71.345158      0.77546351   
     80000   302.49126      882.13814      320            183407.67          38466  -70.592133      70.590201      0.77546351   
     82000   296.52798      979.01117      320            183506.13          38466  -69.835478      69.836026      0.77546351   
     84000   299.55159      1269.889       320            183372.15          38466  -69.07987       69.079307      0.77546351   
     86000   300.94436      1207.0207      320            183900.33          38466  -68.323648      68.319896      0.77546351   
     88000   297.62886      1196.5579      320            184044.71          38466  -67.567314      67.56587       0.77546351   
     90000   300.95394      1207.6863      320            184356.3           38466  -66.81119       66.810332      0.77546351   
     92000   301.75168      1365.552       320            184318.2           38466  -66.054763      66.05469       0.77546351   
     94000   299.81475      1580.3553      320            184572.18          38466  -65.298647      65.296612      0.77546351   
     96000   300.7715       1471.1907      320            184898.01          38466  -64.542238      64.542151      0.77546351   
     98000   299.48797      1543.5115      320            184651.48          38466  -63.786157      63.785897      0.77546351   
    100000   303.81392      1606.3612      320            184820.35          38466  -63.029987      63.027628      0.77546351   
    102000   300.06385      1672.1711      320            185229.59          38466  -62.273494      62.273308      0.77546351   
    104000   299.41373      1642.9165      320            185371.14          38466  -61.51747       61.516318      0.77546351   
    106000   299.83991      1948.7881      320            185745.66          38466  -60.761138      60.758414      0.77546351   
    108000   299.91644      1985.7773      320            185998.9           38466  -60.005075      60.004231      0.77546351   
    110000   299.07348      1957.882       320            186221.64          38466  -59.248754      59.24764       0.77546351   
    112000   299.04298      2098.0425      320            186265.73          38466  -58.492514      58.491308      0.77546351   
    114000   299.73255      2160.2206      320            186565.24          38466  -57.736322      57.735666      0.77546351   
    116000   298.43177      2290.0221      320            186949.39          38466  -56.980059      56.979447      0.77546351   
    118000   299.87775      2386.4234      320            186937.31          38466  -56.223757      56.222844      0.77546351   
    120000   299.77203      2533.5809      320            187241.36          38466  -55.46761       55.466486      0.77546351   
    122000   302.68731      2524.3623      320            187612.75          38466  -54.71141       54.711425      0.77546351   
    124000   298.97383      2662.0276      320            187839.56          38466  -53.955114      53.955147      0.77546351   
    126000   300.88434      2613.6485      320            187985.95          38466  -53.198872      53.196846      0.77546351   
    128000   302.12648      2845.532       320            188024.48          38466  -52.442697      52.442407      0.77546351   
    130000   300.3682       2941.5305      320            188523.62          38466  -51.686475      51.685349      0.77546351   
    132000   299.79259      2937.8589      320            188610.92          38466  -50.930231      50.927225      0.77546351   
    134000   301.09441      2931.3948      320            188921.43          38466  -50.173993      50.173614      0.77546351   
    136000   299.24273      3126.14        320            189162.4           38466  -49.417776      49.417452      0.77546351   
    138000   300.31635      3172.767       320            189382.78          38466  -48.661453      48.656769      0.77546351   
    140000   301.67348      3363.0229      320            189857.4           38466  -47.90525       47.904369      0.77546351   
    142000   300.30312      3424.7133      320            189789.65          38466  -47.149071      47.14881       0.77546351   
    144000   302.66537      3340.7098      320            190021.45          38466  -46.39283       46.391827      0.77546351   
    146000   298.99377      3491.9399      320            190208.18          38466  -45.63646       45.635894      0.77546351   
    148000   299.41641      3717.1408      320            190440.95          38466  -44.88032       44.878928      0.77546351   
    150000   300.94797      3633.4464      320            190841.24          38466  -44.124064      44.122448      0.77546351   
    152000   300.84945      3782.7932      320            191340.17          38466  -43.367827      43.367603      0.77546351   
    154000   301.53774      3839.8548      320            192037.93          38466  -42.611475      42.611558      0.77546351   
    156000   300.75879      4140.7395      320            192093.27          38466  -41.855411      41.854793      0.77546351   
    158000   299.98535      4159.9153      320            192550.91          38466  -41.099167      41.098421      0.77546351   
    160000   300.79441      4419.094       320            193428.72          38466  -40.34294       40.342878      0.77546351   
    160907   302.26421      4481.1475      320            193738.64          38466  -39.999985      39.99981       0.77546351   
Loop time of 2786.77 on 1 procs for 150000 steps with 38466 atoms

Performance: 2.325 ns/day, 10.321 hours/ns, 53.826 timesteps/s, 2.070 Matom-step/s
90.5% CPU use with 1 MPI tasks x 1 OpenMP threads

MPI task timing breakdown:
Section |  min time  |  avg time  |  max time  |%varavg| %total
---------------------------------------------------------------
Pair    | 498.71     | 498.71     | 498.71     |   0.0 | 17.90
Bond    | 1481.3     | 1481.3     | 1481.3     |   0.0 | 53.15
Neigh   | 96.011     | 96.011     | 96.011     |   0.0 |  3.45
Comm    | 37.03      | 37.03      | 37.03      |   0.0 |  1.33
Output  | 6.7618     | 6.7618     | 6.7618     |   0.0 |  0.24
Modify  | 405.32     | 405.32     | 405.32     |   0.0 | 14.54
Other   |            | 261.7      |            |       |  9.39

Nlocal:          38466 ave       38466 max       38466 min
Histogram: 1 0 0 0 0 0 0 0 0 0
Nghost:          16856 ave       16856 max       16856 min
Histogram: 1 0 0 0 0 0 0 0 0 0
Neighs:              0 ave           0 max           0 min
Histogram: 1 0 0 0 0 0 0 0 0 0
FullNghs:  1.17478e+06 ave 1.17478e+06 max 1.17478e+06 min
Histogram: 1 0 0 0 0 0 0 0 0 0

Total # of neighbors = 1174776
Ave neighs/atom = 30.540633
Ave special neighs/atom = 5.766963
Neighbor list builds = 2531
Dangerous builds = 0

unfix           wall_b
unfix           wall_t
fix             final_wall_b all wall/reflect zlo v_NZHALF units box
fix             final_wall_t all wall/reflect zhi v_ZHALF  units box

velocity        all scale 300.0
run             ${NHOLD}
run             50000
Generated 0 of 78 mixed pair_coeff terms from geometric mixing rule
Per MPI rank memory allocation (min/avg/max) = 104.4 | 104.4 | 104.4 Mbytes
   Step          Temp          Press            Lz           PotEng        Atoms        c_ZMIN         c_ZMAX      v_film_dens  
    160907   300            4475.597       320            193738.64          38466  -39.999985      39.99981       0.77546351   
    162000   299.49415      4153.4575      320            192944.8           38466  -39.999881      39.999828      0.77546351   
    164000   299.71162      3696.423       320            191882.52          38466  -39.999657      39.998976      0.77546351   
    166000   300.32804      3604.1028      320            191202.94          38466  -39.998937      39.998579      0.77546351   
    168000   299.9915       3370.7321      320            190645.1           38466  -39.999855      39.999148      0.77546351   
    170000   300.08734      3164.8149      320            190617.04          38466  -39.999702      39.999785      0.77546351   
    172000   300.14996      3155.5995      320            190026.52          38466  -39.99982       39.999773      0.77546351   
    174000   300.63869      3085.1937      320            189547.03          38466  -39.99943       39.999537      0.77546351   
    176000   298.32383      2951.1838      320            189223.06          38466  -39.999907      39.999598      0.77546351   
    178000   301.38096      2871.6635      320            189433.39          38466  -39.999425      39.999659      0.77546351   
    180000   299.44067      2772.1652      320            189049.38          38466  -39.99817       39.998159      0.77546351   
    182000   301.8555       2891.7325      320            188844.92          38466  -39.999846      39.999529      0.77546351   
    184000   300.60086      2783.4547      320            188910.03          38466  -39.999438      39.99944       0.77546351   
    186000   299.8452       2733.9685      320            188491.83          38466  -39.999077      39.999202      0.77546351   
    188000   298.68815      2792.215       320            188376.48          38466  -39.999937      39.999949      0.77546351   
    190000   300.37749      2612.951       320            187893.83          38466  -39.999016      39.999799      0.77546351   
    192000   300.47224      2693.1461      320            187834.51          38466  -39.999711      39.999994      0.77546351   
    194000   300.19953      2660.1544      320            187879.68          38466  -39.998899      39.998369      0.77546351   
    196000   299.59644      2577.5443      320            187825.94          38466  -39.9998        39.999929      0.77546351   
    198000   301.95762      2558.0134      320            187415.08          38466  -39.999832      39.999826      0.77546351   
    200000   299.62624      2473.3243      320            187507.71          38466  -39.999833      39.999924      0.77546351   
    202000   299.83951      2558.7947      320            187315.19          38466  -39.999908      39.999921      0.77546351   
    204000   297.64492      2571.5582      320            187555.57          38466  -39.999879      39.999211      0.77546351   
    206000   299.60942      2589.1344      320            187416.34          38466  -39.999652      39.998884      0.77546351   
    208000   301.597        2560.6036      320            187157.3           38466  -39.999563      39.999548      0.77546351   
    210000   301.02799      2501.8827      320            187215.51          38466  -39.999429      39.998444      0.77546351   
    210907   301.79667      2536.9346      320            187214.21          38466  -39.99911       39.9992        0.77546351   
Loop time of 1006.97 on 1 procs for 50000 steps with 38466 atoms

Performance: 2.145 ns/day, 11.189 hours/ns, 49.654 timesteps/s, 1.910 Matom-step/s
90.2% CPU use with 1 MPI tasks x 1 OpenMP threads

MPI task timing breakdown:
Section |  min time  |  avg time  |  max time  |%varavg| %total
---------------------------------------------------------------
Pair    | 181.74     | 181.74     | 181.74     |   0.0 | 18.05
Bond    | 532.89     | 532.89     | 532.89     |   0.0 | 52.92
Neigh   | 30.735     | 30.735     | 30.735     |   0.0 |  3.05
Comm    | 11.762     | 11.762     | 11.762     |   0.0 |  1.17
Output  | 2.3202     | 2.3202     | 2.3202     |   0.0 |  0.23
Modify  | 149.84     | 149.84     | 149.84     |   0.0 | 14.88
Other   |            | 97.67      |            |       |  9.70

Nlocal:          38466 ave       38466 max       38466 min
Histogram: 1 0 0 0 0 0 0 0 0 0
Nghost:          16662 ave       16662 max       16662 min
Histogram: 1 0 0 0 0 0 0 0 0 0
Neighs:              0 ave           0 max           0 min
Histogram: 1 0 0 0 0 0 0 0 0 0
FullNghs:  1.11817e+06 ave 1.11817e+06 max 1.11817e+06 min
Histogram: 1 0 0 0 0 0 0 0 0 0

Total # of neighbors = 1118172
Ave neighs/atom = 29.0691
Ave special neighs/atom = 5.766963
Neighbor list builds = 771
Dangerous builds = 0
timestep	0.5
include         setup.params
# LAMMPS parameters created by EMC v9.4.4, build Jun 30 2026 09:51:48

# Variables

variable	seed		index	777888
variable	ntotal		index	38466
variable	fshape		index	1
variable	output		index	setup
variable	field		index	cff/pcff/pcff
variable	location1	index	~/Apps/EMC/field/
variable	nav		index	0.6022141179
variable	temperature	index	300
variable	radius		index	3.5
variable	nrelax		index	1000
variable	weight_nonbond	index	0.0001
variable	weight_bond	index	0.0001
variable	weight_focus	index	1
variable	cutoff		index	12
variable	charge_cutoff	index	12
variable	kappa		index	1
variable	density1	index	1
variable	lprevious	index	0
variable	lphase		index	80.6296
variable	f_Gmax		index	18
variable	chem_hea	index	*CC(*)C(=O)OCCO
variable	chem_ba		index	*CC(*)C(=O)OCCCC
variable	chem_cbea	index	*CC(*)C(=O)OCCC(=O)[O-]
variable	chem_atac	index	*CC(*)C(=O)OCC[N+](C)(C)C
variable	chem_pea	index	*CC(*)C(=O)OCCOc1ccccc1
variable	chem_t		index	*C
variable	lg_hea		index	16
variable	lg_ba		index	21
variable	lg_cbea		index	17
variable	lg_atac		index	27
variable	lg_pea		index	26
variable	lg_t		index	4
variable	norm_Gmax	index	1
variable	l_Gmax		index	2137
variable	mg_hea		index	116.11771
variable	mg_ba		index	128.17249
variable	mg_cbea		index	143.12029
variable	mg_atac		index	158.22222
variable	mg_pea		index	192.21649
variable	mg_t		index	15.03506
variable	m_Gmax		index	13867.24439
variable	n_Gmax		index	18
variable	mtotal		index	249610.39902
variable	nphase1		index	38466
variable	mphase1		index	249610.39902
variable	vphase1		index	414487.790307
variable	lbox		index	74.5596591511
variable	lphase1		index	74.5596591511
variable	lxx		index	80.6296
variable	lyy		index	82.864
variable	lzz		index	80
variable	lzy		index	0
variable	lzx		index	0
variable	lyx		index	0
variable	vtotal		index	534503.293952
variable	nl_Gmax		index	18

# Types

variable	type_c		index	1
variable	type_cm		index	2
variable	type_c1		index	3
variable	type_c_1	index	4
variable	type_cp		index	5
variable	type_hc		index	6
variable	type_ho		index	7
variable	type_n4		index	8
variable	type_om		index	9
variable	type_o_1	index	10
variable	type_o_2	index	11
variable	type_oc		index	12
variable	type_oh		index	13

variable	type_bond_c_c	index	1
variable	type_bond_c_cm	index	2
variable	type_bond_c_c1	index	3
variable	type_bond_c_hc	index	4
variable	type_bond_c_n4	index	5
variable	type_bond_c_o_2	index	6
variable	type_bond_c_oc	index	7
variable	type_bond_c_oh	index	8
variable	type_bond_cm_om	index	9
variable	type_bond_c1_c_1 index	10
variable	type_bond_c1_hc	index	11
variable	type_bond_c_1_o_1 index	12
variable	type_bond_c_1_o_2 index	13
variable	type_bond_cp_cp	index	14
variable	type_bond_cp_hc	index	15
variable	type_bond_cp_oc	index	16
variable	type_bond_ho_oh	index	17

variable	type_angle_c_c_c index	1
variable	type_angle_c_c_cm index	2
variable	type_angle_c_c_c1 index	3
variable	type_angle_c_c_hc index	4
variable	type_angle_c_c_n4 index	5
variable	type_angle_c_c_o_2 index	6
variable	type_angle_c_c_oc index	7
variable	type_angle_c_c_oh index	8
variable	type_angle_c_cm_om index	9
variable	type_angle_c_c1_c index	10
variable	type_angle_c_c1_c_1 index	11
variable	type_angle_c_c1_hc index	12
variable	type_angle_c_n4_c index	13
variable	type_angle_c_o_2_c_1 index	14
variable	type_angle_c_oc_cp index	15
variable	type_angle_c_oh_ho index	16
variable	type_angle_cm_c_hc index	17
variable	type_angle_c1_c_c1 index	18
variable	type_angle_c1_c_hc index	19
variable	type_angle_c1_c_1_o_1 index	20
variable	type_angle_c1_c_1_o_2 index	21
variable	type_angle_c_1_c1_hc index	22
variable	type_angle_cp_cp_cp index	23
variable	type_angle_cp_cp_hc index	24
variable	type_angle_cp_cp_oc index	25
variable	type_angle_hc_c_hc index	26
variable	type_angle_hc_c_n4 index	27
variable	type_angle_hc_c_o_2 index	28
variable	type_angle_hc_c_oc index	29
variable	type_angle_hc_c_oh index	30
variable	type_angle_om_cm_om index	31
variable	type_angle_o_1_c_1_o_2 index	32

# Clusters

variable	n0_Gmax		index	1
variable	n1_Gmax		index	18
variable	nl_Gmax		index	18

# Flags

variable	flag_charged	index	1

# Masses

mass		 1    12.01115  # c
mass		 2    12.01115  # c-
mass		 3    12.01115  # c1
mass		 4    12.01115  # c_1
mass		 5    12.01115  # cp
mass		 6     1.00797  # hc
mass		 7     1.00797  # ho
mass		 8    14.00670  # n4
mass		 9    15.99940  # o-
mass		10    15.99940  # o_1
mass		11    15.99940  # o_2
mass		12    15.99940  # oc
mass		13    15.99940  # oh

# Potentials

pair_style	lj/class2/coul/long ${cutoff} ${charge_cutoff}  # 9.5
pair_style	lj/class2/coul/long 12 ${charge_cutoff}  
pair_style	lj/class2/coul/long 12 12  
bond_style	class2
angle_style	class2
dihedral_style	class2
improper_style	class2
pair_modify	mix sixthpower tail yes
special_bonds	lj/coul 0 0 1

# Pair Coeffs

pair_coeff	 1  1    0.05400    4.01000  # c,c
pair_coeff	 2  2    0.12000    3.90800  # c-,c-
pair_coeff	 3  3    0.05400    4.01000  # c1,c1
pair_coeff	 4  4    0.12000    3.81000  # c_1,c_1
pair_coeff	 5  5    0.06400    4.01000  # cp,cp
pair_coeff	 6  6    0.02000    2.99500  # hc,hc
pair_coeff	 7  7    0.01300    1.09800  # ho,ho
pair_coeff	 8  8    0.06500    3.26200  # n4,n4
pair_coeff	 9  9    0.16700    3.59600  # o-,o-
pair_coeff	10 10    0.26700    3.30000  # o_1,o_1
pair_coeff	11 11    0.24000    3.42000  # o_2,o_2
pair_coeff	12 12    0.24000    3.53500  # oc,oc
pair_coeff	13 13    0.24000    3.53500  # oh,oh

# Bond Coeffs

bond_coeff	 1    1.53000  299.67000 -501.77000  679.81000  # c,c
bond_coeff	 2    1.54830  253.08000 -449.03000  457.32000  # c,c-
bond_coeff	 3    1.53000  299.67000 -501.77000  679.81000  # c,c1
bond_coeff	 4    1.10100  345.00000 -691.89000  844.60000  # c,hc
bond_coeff	 5    1.51850  293.17000 -603.78820  629.69000  # c,n4
bond_coeff	 6    1.43000  326.72730 -608.53060  689.03330  # c,o_2
bond_coeff	 7    1.42000  400.39540 -835.19510 1313.01420  # c,oc
bond_coeff	 8    1.42000  400.39540 -835.19510 1313.01420  # c,oh
bond_coeff	 9    1.23390  711.35000 -1543.90000 1858.60000  # c-,o-
bond_coeff	10    1.52020  253.70670 -423.03700  396.90000  # c1,c_1
bond_coeff	11    1.10100  345.00000 -691.89000  844.60000  # c1,hc
bond_coeff	12    1.20200  851.14030 -1918.48820 2160.76590  # c_1,o_1
bond_coeff	13    1.36830  367.14810 -794.79080 1055.23190  # c_1,o_2
bond_coeff	14    1.41700  470.83610 -627.61790 1327.63450  # cp,cp
bond_coeff	15    1.09820  372.82510 -803.45260  894.31730  # cp,hc
bond_coeff	16    1.37680  428.87980 -738.23510 1114.96550  # cp,oc
bond_coeff	17    0.96500  532.50620 -1282.90500 2004.76580  # ho,oh

# Angle Coeffs

angle_coeff	 1  112.67000   39.51600   -7.44300   -9.55830  # c,c,c
angle_coeff	 2  104.49000   31.37500   -4.40230   -6.52710  # c,c,c-
angle_coeff	 3  112.67000   39.51600   -7.44300   -9.55830  # c,c,c1
angle_coeff	 4  110.77000   41.45300  -10.60400    5.12900  # c,c,hc
angle_coeff	 5  112.13000   66.45200    4.86940   37.78600  # c,c,n4
angle_coeff	 6  107.41000   63.39070  -13.45130    1.66500  # c,c,o_2
angle_coeff	 7  111.27000   54.53810   -8.36420  -13.08380  # c,c,oc
angle_coeff	 8  111.27000   54.53810   -8.36420  -13.08380  # c,c,oh
angle_coeff	 9  115.06000   59.09600  -15.14300  -12.98200  # c,c-,o-
angle_coeff	10  112.67000   39.51600   -7.44300   -9.55830  # c,c1,c
angle_coeff	11  108.52950   51.97470   -9.48510  -10.99850  # c,c1,c_1
angle_coeff	12  110.77000   41.45300  -10.60400    5.12900  # c,c1,hc
angle_coeff	13  109.77000   44.82200   -3.91320    0.00000  # c,n4,c
angle_coeff	14  113.28800   61.28680  -28.97860    7.99290  # c,o_2,c_1
angle_coeff	15  102.96950   38.97390   -6.25950   -8.17100  # c,oc,cp
angle_coeff	16  105.80000   52.70610  -12.10900   -9.86810  # c,oh,ho
angle_coeff	17  109.67000   37.91900   -7.38770   -8.06940  # c-,c,hc
angle_coeff	18  112.67000   39.51600   -7.44300   -9.55830  # c1,c,c1
angle_coeff	19  110.77000   41.45300  -10.60400    5.12900  # c1,c,hc
angle_coeff	20  123.14510   55.54310  -17.21230    0.13480  # c1,c_1,o_1
angle_coeff	21  100.31820   38.86310   -3.83230   -7.98020  # c1,c_1,o_2
angle_coeff	22  107.73360   40.60990  -28.81210    0.00000  # c_1,c1,hc
angle_coeff	23  118.90000   61.02260  -34.99310    0.00000  # cp,cp,cp
angle_coeff	24  117.94000   35.15580  -12.46820    0.00000  # cp,cp,hc
angle_coeff	25  123.42000   73.67810  -21.67870    0.00000  # cp,cp,oc
angle_coeff	26  107.66000   39.64100  -12.92100   -2.43180  # hc,c,hc
angle_coeff	27  105.85000   72.26300  -28.19230    0.00000  # hc,c,n4
angle_coeff	28  107.68800   65.48010  -10.34980    5.88660  # hc,c,o_2
angle_coeff	29  108.72800   58.54460  -10.80880  -12.40060  # hc,c,oc
angle_coeff	30  108.72800   58.54460  -10.80880  -12.40060  # hc,c,oh
angle_coeff	31  130.01000  111.29000  -52.33900  -28.10700  # o-,c-,o-
angle_coeff	32  120.79700   95.34460  -32.28690    6.37780  # o_1,c_1,o_2

# BondBond Coeffs

angle_coeff	 1 bb    0.00000    1.53000    1.53000  # c,c,c
angle_coeff	 2 bb   16.46500    1.53000    1.54830  # c,c,c-
angle_coeff	 3 bb    0.00000    1.53000    1.53000  # c,c,c1
angle_coeff	 4 bb    3.38720    1.53000    1.10100  # c,c,hc
angle_coeff	 5 bb   16.42800    1.53000    1.51850  # c,c,n4
angle_coeff	 6 bb   23.26470    1.53000    1.43000  # c,c,o_2
angle_coeff	 7 bb   11.43180    1.53000    1.42000  # c,c,oc
angle_coeff	 8 bb   11.43180    1.53000    1.42000  # c,c,oh
angle_coeff	 9 bb   57.87500    1.54830    1.23390  # c,c-,o-
angle_coeff	10 bb    0.00000    1.53000    1.53000  # c,c1,c
angle_coeff	11 bb    5.41990    1.53000    1.52020  # c,c1,c_1
angle_coeff	12 bb    3.38720    1.53000    1.10100  # c,c1,hc
angle_coeff	13 bb   14.95900    1.51850    1.51850  # c,n4,c
angle_coeff	14 bb   45.45030    1.43000    1.36830  # c,o_2,c_1
angle_coeff	15 bb    0.00000    1.42000    1.37680  # c,oc,cp
angle_coeff	16 bb   -9.68790    1.42000    0.96500  # c,oh,ho
angle_coeff	17 bb   -1.17010    1.54830    1.10100  # c-,c,hc
angle_coeff	18 bb    0.00000    1.53000    1.53000  # c1,c,c1
angle_coeff	19 bb    3.38720    1.53000    1.10100  # c1,c,hc
angle_coeff	20 bb   46.06850    1.52020    1.20200  # c1,c_1,o_1
angle_coeff	21 bb   19.10690    1.52020    1.36830  # c1,c_1,o_2
angle_coeff	22 bb    0.71150    1.52020    1.10100  # c_1,c1,hc
angle_coeff	23 bb   68.28560    1.41700    1.41700  # cp,cp,cp
angle_coeff	24 bb    1.07950    1.41700    1.09820  # cp,cp,hc
angle_coeff	25 bb   48.47540    1.41700    1.37680  # cp,cp,oc
angle_coeff	26 bb    5.33160    1.10100    1.10100  # hc,c,hc
angle_coeff	27 bb   -1.47970    1.10100    1.51850  # hc,c,n4
angle_coeff	28 bb    5.64540    1.10100    1.43000  # hc,c,o_2
angle_coeff	29 bb   23.19790    1.10100    1.42000  # hc,c,oc
angle_coeff	30 bb   23.19790    1.10100    1.42000  # hc,c,oh
angle_coeff	31 bb  166.59000    1.23390    1.23390  # o-,c-,o-
angle_coeff	32 bb  121.48800    1.20200    1.36830  # o_1,c_1,o_2

# BondAngle Coeffs

angle_coeff	 1 ba    8.01600    8.01600    1.53000    1.53000  # c,c,c
angle_coeff	 2 ba   23.08400   19.15900    1.53000    1.54830  # c,c,c-
angle_coeff	 3 ba    8.01600    8.01600    1.53000    1.53000  # c,c,c1
angle_coeff	 4 ba   20.75400   11.42100    1.53000    1.10100  # c,c,hc
angle_coeff	 5 ba   14.06200   49.77300    1.53000    1.51850  # c,c,n4
angle_coeff	 6 ba   23.39200   47.94870    1.53000    1.43000  # c,c,o_2
angle_coeff	 7 ba    2.68680   20.40330    1.53000    1.42000  # c,c,oc
angle_coeff	 8 ba    2.68680   20.40330    1.53000    1.42000  # c,c,oh
angle_coeff	 9 ba   51.58400   62.05600    1.54830    1.23390  # c,c-,o-
angle_coeff	10 ba    8.01600    8.01600    1.53000    1.53000  # c,c1,c
angle_coeff	11 ba   18.16780   15.87580    1.53000    1.52020  # c,c1,c_1
angle_coeff	12 ba   20.75400   11.42100    1.53000    1.10100  # c,c1,hc
angle_coeff	13 ba   23.09300   23.09300    1.51850    1.51850  # c,n4,c
angle_coeff	14 ba   41.91160   46.46080    1.43000    1.36830  # c,o_2,c_1
angle_coeff	15 ba    0.00000    0.00000    1.42000    1.37680  # c,oc,cp
angle_coeff	16 ba   28.58000   18.92770    1.42000    0.96500  # c,oh,ho
angle_coeff	17 ba   11.86500   14.96500    1.54830    1.10100  # c-,c,hc
angle_coeff	18 ba    8.01600    8.01600    1.53000    1.53000  # c1,c,c1
angle_coeff	19 ba   20.75400   11.42100    1.53000    1.10100  # c1,c,hc
angle_coeff	20 ba   34.99820   37.12980    1.52020    1.20200  # c1,c_1,o_1
angle_coeff	21 ba    1.34350    4.69780    1.52020    1.36830  # c1,c_1,o_2
angle_coeff	22 ba   12.46320    9.17650    1.52020    1.10100  # c_1,c1,hc
angle_coeff	23 ba   28.87080   28.87080    1.41700    1.41700  # cp,cp,cp
angle_coeff	24 ba   20.00330   24.21830    1.41700    1.09820  # cp,cp,hc
angle_coeff	25 ba   58.47900  107.68060    1.41700    1.37680  # cp,cp,oc
angle_coeff	26 ba   18.10300   18.10300    1.10100    1.10100  # hc,c,hc
angle_coeff	27 ba   15.88200   50.01800    1.10100    1.51850  # hc,c,n4
angle_coeff	28 ba    8.68640   57.49750    1.10100    1.43000  # hc,c,o_2
angle_coeff	29 ba    4.61890   55.32700    1.10100    1.42000  # hc,c,oc
angle_coeff	30 ba    4.61890   55.32700    1.10100    1.42000  # hc,c,oh
angle_coeff	31 ba   73.35000   73.35000    1.23390    1.23390  # o-,c-,o-
angle_coeff	32 ba   76.26140   71.87610    1.20200    1.36830  # o_1,c_1,o_2

# Dihedral Coeffs

dihedral_coeff	 1    0.00000    0.00000    0.05140    0.00000   -0.14300    0.00000  # c,c,c,c
dihedral_coeff	 2    0.00000    0.00000    0.03160    0.00000   -0.16810    0.00000  # c,c,c,hc
dihedral_coeff	 3    0.00000    0.00000    0.00000    0.00000   -0.25000    0.00000  # c,c,c,o_2
dihedral_coeff	 4    1.73110    0.00000    1.85100    0.00000   -0.19330    0.00000  # c,c,c-,o-
dihedral_coeff	 5    0.00000    0.00000    0.05140    0.00000   -0.14300    0.00000  # c,c,c1,c
dihedral_coeff	 6    0.09720    0.00000    0.07220    0.00000   -0.25810    0.00000  # c,c,c1,c_1
dihedral_coeff	 7    0.00000    0.00000    0.03160    0.00000   -0.16810    0.00000  # c,c,c1,hc
dihedral_coeff	 8    0.70770    0.00000   -0.37440    0.00000   -0.19140    0.00000  # c,c,n4,c
dihedral_coeff	 9    0.00000    0.00000    0.00000    0.00000   -0.19320    0.00000  # c,c,o_2,c_1
dihedral_coeff	10    0.00000    0.00000    0.00000    0.00000    0.13000  180.00000  # c,c,oc,cp
dihedral_coeff	11   -0.67320    0.00000   -0.47780    0.00000   -0.16700    0.00000  # c,c,oh,ho
dihedral_coeff	12    0.00000    0.00000    0.05140    0.00000   -0.14300    0.00000  # c,c1,c,c1
dihedral_coeff	13    0.00000    0.00000    0.03160    0.00000   -0.16810    0.00000  # c,c1,c,hc
dihedral_coeff	14    0.04420    0.00000    0.02920    0.00000    0.05620    0.00000  # c,c1,c_1,o_1
dihedral_coeff	15    1.83410    0.00000    2.06030    0.00000   -0.01950    0.00000  # c,c1,c_1,o_2
dihedral_coeff	16    0.36240    0.00000    0.10120    0.00000   -0.24860    0.00000  # c,n4,c,hc
dihedral_coeff	17   -2.55940    0.00000    2.20130    0.00000    0.03250    0.00000  # c,o_2,c_1,c1
dihedral_coeff	18    0.00000    0.00000    2.20890    0.00000    0.00000    0.00000  # c,o_2,c_1,o_1
dihedral_coeff	19    0.00000    0.00000    1.50000    0.00000    0.00000    0.00000  # c,oc,cp,cp
dihedral_coeff	20   -1.27670    0.00000    0.59490    0.00000    0.23790    0.00000  # c-,c,c,hc
dihedral_coeff	21    0.00000    0.00000    0.00000    0.00000    0.15800  180.00000  # c-,c,c,o_2
dihedral_coeff	22    0.00000    0.00000    0.03160    0.00000   -0.16810    0.00000  # c1,c,c,hc
dihedral_coeff	23    0.09720    0.00000    0.07220    0.00000   -0.25810    0.00000  # c1,c,c1,c_1
dihedral_coeff	24    0.00000    0.00000    0.03160    0.00000   -0.16810    0.00000  # c1,c,c1,hc
dihedral_coeff	25   -0.02280    0.00000    0.02800    0.00000   -0.18630    0.00000  # c_1,c1,c,hc
dihedral_coeff	26    0.00000    0.00000    0.00000    0.00000   -0.19320    0.00000  # c_1,o_2,c,hc
dihedral_coeff	27    8.36670    0.00000    1.19320    0.00000    0.00000    0.00000  # cp,cp,cp,cp
dihedral_coeff	28    0.00000    0.00000    3.96610    0.00000    0.00000    0.00000  # cp,cp,cp,hc
dihedral_coeff	29    0.00000    0.00000    4.84980    0.00000    0.00000    0.00000  # cp,cp,cp,oc
dihedral_coeff	30    0.95130    0.00000    0.11550    0.00000    0.07200    0.00000  # cp,oc,c,hc
dihedral_coeff	31   -0.14320    0.00000    0.06170    0.00000   -0.10830    0.00000  # hc,c,c,hc
dihedral_coeff	32   -0.21790    0.00000   -0.41270    0.00000   -0.12520    0.00000  # hc,c,c,n4
dihedral_coeff	33    0.00000    0.00000    0.00000    0.00000   -0.25000    0.00000  # hc,c,c,o_2
dihedral_coeff	34   -0.14350    0.00000    0.25300    0.00000   -0.09050    0.00000  # hc,c,c,oc
dihedral_coeff	35   -0.14350    0.00000    0.25300    0.00000   -0.09050    0.00000  # hc,c,c,oh
dihedral_coeff	36   -2.59990    0.00000    1.04880    0.00000   -0.20890    0.00000  # hc,c,c-,o-
dihedral_coeff	37   -0.14320    0.00000    0.06170    0.00000   -0.10830    0.00000  # hc,c,c1,hc
dihedral_coeff	38    0.18630    0.00000   -0.43380    0.00000   -0.21210    0.00000  # hc,c,oh,ho
dihedral_coeff	39   -0.18040    0.00000    0.00120    0.00000    0.03710    0.00000  # hc,c1,c_1,o_1
dihedral_coeff	40   -0.63590    0.00000    1.48070    0.00000   -0.04380    0.00000  # hc,c1,c_1,o_2
dihedral_coeff	41    0.00000    0.00000    1.87690    0.00000    0.00000    0.00000  # hc,cp,cp,hc
dihedral_coeff	42    0.00000    0.00000    1.72340    0.00000    0.00000    0.00000  # hc,cp,cp,oc
dihedral_coeff	43    0.00000    0.00000    0.00000    0.00000    0.15800  180.00000  # n4,c,c,o_2
dihedral_coeff	44    0.00000    0.00000    0.00000    0.00000    0.15800  180.00000  # o_2,c,c,oc
dihedral_coeff	45    0.00000    0.00000    0.00000    0.00000    0.15800  180.00000  # o_2,c,c,oh

# MiddleBondTorsion Coeffs

dihedral_coeff	 1 mbt  -17.78700   -7.18770    0.00000    1.53000  # c,c,c,c
dihedral_coeff	 2 mbt  -14.87900   -3.65810   -0.31380    1.53000  # c,c,c,hc
dihedral_coeff	 3 mbt    0.00000    0.00000    0.00000    1.53000  # c,c,c,o_2
dihedral_coeff	 4 mbt    0.67980    0.93880   -1.84780    1.54830  # c,c,c-,o-
dihedral_coeff	 5 mbt  -17.78700   -7.18770    0.00000    1.53000  # c,c,c1,c
dihedral_coeff	 6 mbt   -1.59450    0.22670   -0.69110    1.53000  # c,c,c1,c_1
dihedral_coeff	 7 mbt  -14.87900   -3.65810   -0.31380    1.53000  # c,c,c1,hc
dihedral_coeff	 8 mbt    6.25790   -5.08180    6.05110    1.51850  # c,c,n4,c
dihedral_coeff	 9 mbt   -5.43500    0.00000    0.00000    1.43000  # c,c,o_2,c_1
dihedral_coeff	10 mbt    0.00000    0.00000    0.00000    1.42000  # c,c,oc,cp
dihedral_coeff	11 mbt    1.24720    0.00000    0.74850    1.42000  # c,c,oh,ho
dihedral_coeff	12 mbt  -17.78700   -7.18770    0.00000    1.53000  # c,c1,c,c1
dihedral_coeff	13 mbt  -14.87900   -3.65810   -0.31380    1.53000  # c,c1,c,hc
dihedral_coeff	14 mbt    0.33880   -0.10960    0.12190    1.52020  # c,c1,c_1,o_1
dihedral_coeff	15 mbt  -17.32800   -5.79000   -3.21140    1.52020  # c,c1,c_1,o_2
dihedral_coeff	16 mbt    0.76300    2.63030   -2.59740    1.51850  # c,n4,c,hc
dihedral_coeff	17 mbt    1.34450    3.55150   -4.92020    1.36830  # c,o_2,c_1,c1
dihedral_coeff	18 mbt    4.26000    0.00000    0.00000    1.36830  # c,o_2,c_1,o_1
dihedral_coeff	19 mbt    0.00000    0.00000    0.00000    1.37680  # c,oc,cp,cp
dihedral_coeff	20 mbt  -13.64200   -0.88430    0.21180    1.53000  # c-,c,c,hc
dihedral_coeff	21 mbt    0.00000    0.00000    0.00000    1.53000  # c-,c,c,o_2
dihedral_coeff	22 mbt  -14.87900   -3.65810   -0.31380    1.53000  # c1,c,c,hc
dihedral_coeff	23 mbt   -1.59450    0.22670   -0.69110    1.53000  # c1,c,c1,c_1
dihedral_coeff	24 mbt  -14.87900   -3.65810   -0.31380    1.53000  # c1,c,c1,hc
dihedral_coeff	25 mbt   -3.50390    1.24580   -0.76100    1.53000  # c_1,c1,c,hc
dihedral_coeff	26 mbt    0.00000    0.00000    0.00000    1.43000  # c_1,o_2,c,hc
dihedral_coeff	27 mbt   27.59890   -2.31200    0.00000    1.41700  # cp,cp,cp,cp
dihedral_coeff	28 mbt    0.00000   -1.15210    0.00000    1.41700  # cp,cp,cp,hc
dihedral_coeff	29 mbt    0.00000    4.82550    0.00000    1.41700  # cp,cp,cp,oc
dihedral_coeff	30 mbt    0.00000    0.00000    0.00000    1.42000  # cp,oc,c,hc
dihedral_coeff	31 mbt  -14.26100   -0.53220   -0.48640    1.53000  # hc,c,c,hc
dihedral_coeff	32 mbt   -9.88260   -3.71380   -0.10220    1.53000  # hc,c,c,n4
dihedral_coeff	33 mbt    0.00000    0.00000    0.00000    1.53000  # hc,c,c,o_2
dihedral_coeff	34 mbt  -16.79750   -1.22960   -0.27500    1.53000  # hc,c,c,oc
dihedral_coeff	35 mbt  -16.79750   -1.22960   -0.27500    1.53000  # hc,c,c,oh
dihedral_coeff	36 mbt   -5.70090    0.77580   -0.40900    1.54830  # hc,c,c-,o-
dihedral_coeff	37 mbt  -14.26100   -0.53220   -0.48640    1.53000  # hc,c,c1,hc
dihedral_coeff	38 mbt    0.00000    0.92410   -0.58890    1.42000  # hc,c,oh,ho
dihedral_coeff	39 mbt    0.23590    0.91390    0.95940    1.52020  # hc,c1,c_1,o_1
dihedral_coeff	40 mbt  -13.76860   -2.59590    1.19340    1.52020  # hc,c1,c_1,o_2
dihedral_coeff	41 mbt    0.00000    4.82280    0.00000    1.41700  # hc,cp,cp,hc
dihedral_coeff	42 mbt    0.00000    5.54320    0.00000    1.41700  # hc,cp,cp,oc
dihedral_coeff	43 mbt    0.00000    0.00000    0.00000    1.53000  # n4,c,c,o_2
dihedral_coeff	44 mbt    0.00000    0.00000    0.00000    1.53000  # o_2,c,c,oc
dihedral_coeff	45 mbt    0.00000    0.00000    0.00000    1.53000  # o_2,c,c,oh

# EndBondTorsion Coeffs

dihedral_coeff	 1 ebt   -0.07320    0.00000    0.00000   -0.07320    0.00000    0.00000    1.53000    1.53000  # c,c,c,c
dihedral_coeff	 2 ebt    0.24860    0.24220   -0.09250    0.08140    0.05910    0.22190    1.53000    1.10100  # c,c,c,hc
dihedral_coeff	 3 ebt    0.00000    0.00000    0.00000    0.00000    0.00000    0.00000    1.53000    1.43000  # c,c,c,o_2
dihedral_coeff	 4 ebt    0.00000    0.00000    0.00000    0.00000    0.00000    0.00000    1.53000    1.23390  # c,c,c-,o-
dihedral_coeff	 5 ebt   -0.07320    0.00000    0.00000   -0.07320    0.00000    0.00000    1.53000    1.53000  # c,c,c1,c
dihedral_coeff	 6 ebt    0.00620   -0.00020    0.00360    0.00550    0.00600   -0.00090    1.53000    1.52020  # c,c,c1,c_1
dihedral_coeff	 7 ebt    0.24860    0.24220   -0.09250    0.08140    0.05910    0.22190    1.53000    1.10100  # c,c,c1,hc
dihedral_coeff	 8 ebt    0.00000    0.00000    0.00000    0.00000    0.00000    0.00000    1.53000    1.51850  # c,c,n4,c
dihedral_coeff	 9 ebt    0.00000    0.00000    0.00000    0.00000    0.00000    0.00000    1.53000    1.36830  # c,c,o_2,c_1
dihedral_coeff	10 ebt    0.00000    0.00000    0.00000    0.00000    0.00000    0.00000    1.53000    1.37680  # c,c,oc,cp
dihedral_coeff	11 ebt   -0.58000    0.90040    0.00000    0.00000    0.53430    0.90250    1.53000    0.96500  # c,c,oh,ho
dihedral_coeff	12 ebt   -0.07320    0.00000    0.00000   -0.07320    0.00000    0.00000    1.53000    1.53000  # c,c1,c,c1
dihedral_coeff	13 ebt    0.24860    0.24220   -0.09250    0.08140    0.05910    0.22190    1.53000    1.10100  # c,c1,c,hc
dihedral_coeff	14 ebt    0.26540    0.05030    0.10460   -0.28100    0.08160   -0.15220    1.53000    1.20200  # c,c1,c_1,o_1
dihedral_coeff	15 ebt    0.00000    0.00000    0.00000    0.00000    0.00000    0.00000    1.53000    1.36830  # c,c1,c_1,o_2
dihedral_coeff	16 ebt    0.00000    0.00000    0.00000    0.00000    0.00000    0.00000    1.51850    1.10100  # c,n4,c,hc
dihedral_coeff	17 ebt    0.00000    0.00000    0.00000    0.00000    0.00000    0.00000    1.43000    1.52020  # c,o_2,c_1,c1
dihedral_coeff	18 ebt    0.00000    0.00000    0.00000    0.00000    0.00000    0.00000    1.43000    1.20200  # c,o_2,c_1,o_1
dihedral_coeff	19 ebt    0.00000    0.00000    0.00000    0.00000    0.00000    0.00000    1.42000    1.41700  # c,oc,cp,cp
dihedral_coeff	20 ebt    0.00000    0.00000    0.00000    0.00000    0.00000    0.00000    1.54830    1.10100  # c-,c,c,hc
dihedral_coeff	21 ebt    0.00000    0.00000    0.00000    0.00000    0.00000    0.00000    1.54830    1.43000  # c-,c,c,o_2
dihedral_coeff	22 ebt    0.24860    0.24220   -0.09250    0.08140    0.05910    0.22190    1.53000    1.10100  # c1,c,c,hc
dihedral_coeff	23 ebt    0.00620   -0.00020    0.00360    0.00550    0.00600   -0.00090    1.53000    1.52020  # c1,c,c1,c_1
dihedral_coeff	24 ebt    0.24860    0.24220   -0.09250    0.08140    0.05910    0.22190    1.53000    1.10100  # c1,c,c1,hc
dihedral_coeff	25 ebt   -0.02040    0.36280   -0.44260   -0.00970   -0.03150   -0.07550    1.52020    1.10100  # c_1,c1,c,hc
dihedral_coeff	26 ebt    0.00000    0.00000    0.00000    0.00000    0.00000    0.00000    1.36830    1.10100  # c_1,o_2,c,hc
dihedral_coeff	27 ebt   -0.11850    6.32040    0.00000   -0.11850    6.32040    0.00000    1.41700    1.41700  # cp,cp,cp,cp
dihedral_coeff	28 ebt    0.00000   -6.89580    0.00000    0.00000   -0.46690    0.00000    1.41700    1.09820  # cp,cp,cp,hc
dihedral_coeff	29 ebt    0.00000    0.26550    0.00000    0.00000    4.89050    0.00000    1.41700    1.37680  # cp,cp,cp,oc
dihedral_coeff	30 ebt    0.00000    0.00000    0.00000    0.00000    0.00000    0.00000    1.37680    1.10100  # cp,oc,c,hc
dihedral_coeff	31 ebt    0.21300    0.31200    0.07770    0.21300    0.31200    0.07770    1.10100    1.10100  # hc,c,c,hc
dihedral_coeff	32 ebt    0.00000    0.00000    0.00000    0.00000    0.00000    0.00000    1.10100    1.51850  # hc,c,c,n4
dihedral_coeff	33 ebt    0.00000    0.00000    0.00000    0.00000    0.00000    0.00000    1.10100    1.43000  # hc,c,c,o_2
dihedral_coeff	34 ebt    0.96810    0.95510    0.04360    0.59030    0.66690    0.85840    1.10100    1.42000  # hc,c,c,oc
dihedral_coeff	35 ebt    0.96810    0.95510    0.04360    0.59030    0.66690    0.85840    1.10100    1.42000  # hc,c,c,oh
dihedral_coeff	36 ebt    0.00000    0.00000    0.00000    0.00000    0.00000    0.00000    1.10100    1.23390  # hc,c,c-,o-
dihedral_coeff	37 ebt    0.21300    0.31200    0.07770    0.21300    0.31200    0.07770    1.10100    1.10100  # hc,c,c1,hc
dihedral_coeff	38 ebt   -1.75540    1.31450    0.22630    0.24930    0.68030    0.00000    1.10100    0.96500  # hc,c,oh,ho
dihedral_coeff	39 ebt    1.21430    0.28310    0.39160   -0.22980    0.03540    0.38530    1.10100    1.20200  # hc,c1,c_1,o_1
dihedral_coeff	40 ebt    0.00000    0.00000    0.00000    0.00000    0.00000    0.00000    1.10100    1.36830  # hc,c1,c_1,o_2
dihedral_coeff	41 ebt    0.00000   -0.68900    0.00000    0.00000   -0.68900    0.00000    1.09820    1.09820  # hc,cp,cp,hc
dihedral_coeff	42 ebt    0.00000   -1.58670    0.00000    0.00000    4.26410    0.00000    1.09820    1.37680  # hc,cp,cp,oc
dihedral_coeff	43 ebt    0.00000    0.00000    0.00000    0.00000    0.00000    0.00000    1.51850    1.43000  # n4,c,c,o_2
dihedral_coeff	44 ebt    0.00000    0.00000    0.00000    0.00000    0.00000    0.00000    1.43000    1.42000  # o_2,c,c,oc
dihedral_coeff	45 ebt    0.00000    0.00000    0.00000    0.00000    0.00000    0.00000    1.43000    1.42000  # o_2,c,c,oh

# AngleTorsion Coeffs

dihedral_coeff	 1 at    0.38860   -0.31390    0.13890    0.38860   -0.31390    0.13890  112.67000  112.67000  # c,c,c,c
dihedral_coeff	 2 at   -0.24540    0.00000   -0.11360    0.31130    0.45160   -0.19880  112.67000  110.77000  # c,c,c,hc
dihedral_coeff	 3 at    0.00000    0.00000    0.00000    0.00000    0.00000    0.00000  112.67000  107.41000  # c,c,c,o_2
dihedral_coeff	 4 at   13.22200    1.32710   -0.39410    2.93330    2.25930   -0.55730  104.49000  115.06000  # c,c,c-,o-
dihedral_coeff	 5 at    0.38860   -0.31390    0.13890    0.38860   -0.31390    0.13890  112.67000  112.67000  # c,c,c1,c
dihedral_coeff	 6 at   -0.26070    0.32030   -0.22830    0.05150   -0.06740   -0.04740  112.67000  108.52950  # c,c,c1,c_1
dihedral_coeff	 7 at   -0.24540    0.00000   -0.11360    0.31130    0.45160   -0.19880  112.67000  110.77000  # c,c,c1,hc
dihedral_coeff	 8 at   -1.28770    4.80560    1.14810   -3.76820    2.74640   -1.62720  112.13000  109.77000  # c,c,n4,c
dihedral_coeff	 9 at    0.00000    0.00000    0.00000    0.00000    0.00000    0.00000  107.41000  113.28800  # c,c,o_2,c_1
dihedral_coeff	10 at    0.00000    0.00000    0.00000    0.00000    0.00000    0.00000  111.27000  102.96950  # c,c,oc,cp
dihedral_coeff	11 at   -3.59030    2.52250    0.48880    0.87260   -0.35770    0.38880  111.27000  105.80000  # c,c,oh,ho
dihedral_coeff	12 at    0.38860   -0.31390    0.13890    0.38860   -0.31390    0.13890  112.67000  112.67000  # c,c1,c,c1
dihedral_coeff	13 at   -0.24540    0.00000   -0.11360    0.31130    0.45160   -0.19880  112.67000  110.77000  # c,c1,c,hc
dihedral_coeff	14 at    0.08850   -1.37030   -0.54520    0.67500    0.59650    0.67250  108.52950  123.14510  # c,c1,c_1,o_1
dihedral_coeff	15 at    0.00000    0.00000    0.00000    0.00000    0.00000    0.00000  108.52950  100.31820  # c,c1,c_1,o_2
dihedral_coeff	16 at    1.68400    0.40870    0.42930   -0.08390    1.54770   -0.22840  109.77000  105.85000  # c,n4,c,hc
dihedral_coeff	17 at    0.00000    0.00000    0.00000    0.00000    0.00000    0.00000  113.28800  100.31820  # c,o_2,c_1,c1
dihedral_coeff	18 at    0.00000    0.00000    0.00000    0.00000    0.00000    0.00000  113.28800  120.79700  # c,o_2,c_1,o_1
dihedral_coeff	19 at    0.00000    0.00000    0.00000    0.00000    0.00000    0.00000  102.96950  123.42000  # c,oc,cp,cp
dihedral_coeff	20 at    1.65750   -0.45770    0.36100    3.93180    2.22350    0.36700  104.49000  110.77000  # c-,c,c,hc
dihedral_coeff	21 at    0.00000    0.00000    0.00000    0.00000    0.00000    0.00000  104.49000  107.41000  # c-,c,c,o_2
dihedral_coeff	22 at   -0.24540    0.00000   -0.11360    0.31130    0.45160   -0.19880  112.67000  110.77000  # c1,c,c,hc
dihedral_coeff	23 at   -0.26070    0.32030   -0.22830    0.05150   -0.06740   -0.04740  112.67000  108.52950  # c1,c,c1,c_1
dihedral_coeff	24 at   -0.24540    0.00000   -0.11360    0.31130    0.45160   -0.19880  112.67000  110.77000  # c1,c,c1,hc
dihedral_coeff	25 at   -0.74660   -0.94480   -0.63210    0.01620    1.42110   -1.40920  108.52950  110.77000  # c_1,c1,c,hc
dihedral_coeff	26 at    0.00000    0.00000    0.00000    0.00000    0.00000    0.00000  113.28800  107.68800  # c_1,o_2,c,hc
dihedral_coeff	27 at    1.97670    1.02390    0.00000    1.97670    1.02390    0.00000  118.90000  118.90000  # cp,cp,cp,cp
dihedral_coeff	28 at    0.00000    2.50140    0.00000    0.00000    2.71470    0.00000  118.90000  117.94000  # cp,cp,cp,hc
dihedral_coeff	29 at    0.00000   10.01550    0.00000    0.00000    1.74040    0.00000  118.90000  123.42000  # cp,cp,cp,oc
dihedral_coeff	30 at    0.00000    0.00000    0.00000    0.00000    0.00000    0.00000  102.96950  108.72800  # cp,oc,c,hc
dihedral_coeff	31 at   -0.80850    0.55690   -0.24660   -0.80850    0.55690   -0.24660  110.77000  110.77000  # hc,c,c,hc
dihedral_coeff	32 at   -3.41090    0.64760   -0.95840   -2.86940    1.61720   -1.46270  110.77000  112.13000  # hc,c,c,n4
dihedral_coeff	33 at    0.00000    0.00000    0.00000    0.00000    0.00000    0.00000  110.77000  107.41000  # hc,c,c,o_2
dihedral_coeff	34 at    2.36680    2.49200   -1.01220   -0.18920    0.49180    0.72730  110.77000  111.27000  # hc,c,c,oc
dihedral_coeff	35 at    2.36680    2.49200   -1.01220   -0.18920    0.49180    0.72730  110.77000  111.27000  # hc,c,c,oh
dihedral_coeff	36 at   12.07200    0.23880   -0.04260   -4.28250    1.12540   -0.14810  109.67000  115.06000  # hc,c,c-,o-
dihedral_coeff	37 at   -0.80850    0.55690   -0.24660   -0.80850    0.55690   -0.24660  110.77000  110.77000  # hc,c,c1,hc
dihedral_coeff	38 at   -3.40600    1.63960    0.07370    0.00000   -0.28100   -0.59440  108.72800  105.80000  # hc,c,oh,ho
dihedral_coeff	39 at    9.12990   -0.48470    0.35820   -1.49460    0.73080   -0.20830  107.73360  123.14510  # hc,c1,c_1,o_1
dihedral_coeff	40 at    0.00000    0.00000    0.00000    0.00000    0.00000    0.00000  107.73360  100.31820  # hc,c1,c_1,o_2
dihedral_coeff	41 at    0.00000    2.45010    0.00000    0.00000    2.45010    0.00000  117.94000  117.94000  # hc,cp,cp,hc
dihedral_coeff	42 at    0.00000    1.87290    0.00000    0.00000    2.57060    0.00000  117.94000  123.42000  # hc,cp,cp,oc
dihedral_coeff	43 at    0.00000    0.00000    0.00000    0.00000    0.00000    0.00000  112.13000  107.41000  # n4,c,c,o_2
dihedral_coeff	44 at    0.00000    0.00000    0.00000    0.00000    0.00000    0.00000  107.41000  111.27000  # o_2,c,c,oc
dihedral_coeff	45 at    0.00000    0.00000    0.00000    0.00000    0.00000    0.00000  107.41000  111.27000  # o_2,c,c,oh

# AngleAngleTorsion Coeffs

dihedral_coeff	 1 aat  -22.04500  112.67000  112.67000  # c,c,c,c
dihedral_coeff	 2 aat  -16.16400  112.67000  110.77000  # c,c,c,hc
dihedral_coeff	 3 aat    0.00000  112.67000  107.41000  # c,c,c,o_2
dihedral_coeff	 4 aat  -28.74200  104.49000  115.06000  # c,c,c-,o-
dihedral_coeff	 5 aat  -22.04500  112.67000  112.67000  # c,c,c1,c
dihedral_coeff	 6 aat   -0.38010  112.67000  108.52950  # c,c,c1,c_1
dihedral_coeff	 7 aat  -16.16400  112.67000  110.77000  # c,c,c1,hc
dihedral_coeff	 8 aat  -18.15940  112.13000  109.77000  # c,c,n4,c
dihedral_coeff	 9 aat    0.00000  107.41000  113.28800  # c,c,o_2,c_1
dihedral_coeff	10 aat    0.00000  111.27000  102.96950  # c,c,oc,cp
dihedral_coeff	11 aat  -12.10380  111.27000  105.80000  # c,c,oh,ho
dihedral_coeff	12 aat  -22.04500  112.67000  112.67000  # c,c1,c,c1
dihedral_coeff	13 aat  -16.16400  112.67000  110.77000  # c,c1,c,hc
dihedral_coeff	14 aat   -8.01900  108.52950  123.14510  # c,c1,c_1,o_1
dihedral_coeff	15 aat    0.00000  108.52950  100.31820  # c,c1,c_1,o_2
dihedral_coeff	16 aat  -14.04430  109.77000  105.85000  # c,n4,c,hc
dihedral_coeff	17 aat    0.00000  113.28800  100.31820  # c,o_2,c_1,c1
dihedral_coeff	18 aat    0.00000  113.28800  120.79700  # c,o_2,c_1,o_1
dihedral_coeff	19 aat    0.00000  102.96950  123.42000  # c,oc,cp,cp
dihedral_coeff	20 aat  -15.60700  104.49000  110.77000  # c-,c,c,hc
dihedral_coeff	21 aat    0.00000  104.49000  107.41000  # c-,c,c,o_2
dihedral_coeff	22 aat  -16.16400  112.67000  110.77000  # c1,c,c,hc
dihedral_coeff	23 aat   -0.38010  112.67000  108.52950  # c1,c,c1,c_1
dihedral_coeff	24 aat  -16.16400  112.67000  110.77000  # c1,c,c1,hc
dihedral_coeff	25 aat   -5.36240  108.52950  110.77000  # c_1,c1,c,hc
dihedral_coeff	26 aat    0.00000  113.28800  107.68800  # c_1,o_2,c,hc
dihedral_coeff	27 aat    0.00000  118.90000  118.90000  # cp,cp,cp,cp
dihedral_coeff	28 aat   -4.81410  118.90000  117.94000  # cp,cp,cp,hc
dihedral_coeff	29 aat  -21.02470  118.90000  123.42000  # cp,cp,cp,oc
dihedral_coeff	30 aat    0.00000  102.96950  108.72800  # cp,oc,c,hc
dihedral_coeff	31 aat  -12.56400  110.77000  110.77000  # hc,c,c,hc
dihedral_coeff	32 aat  -18.92630  110.77000  112.13000  # hc,c,c,n4
dihedral_coeff	33 aat    0.00000  110.77000  107.41000  # hc,c,c,o_2
dihedral_coeff	34 aat  -20.20060  110.77000  111.27000  # hc,c,c,oc
dihedral_coeff	35 aat  -20.20060  110.77000  111.27000  # hc,c,c,oh
dihedral_coeff	36 aat  -19.45700  109.67000  115.06000  # hc,c,c-,o-
dihedral_coeff	37 aat  -12.56400  110.77000  110.77000  # hc,c,c1,hc
dihedral_coeff	38 aat  -10.50930  108.72800  105.80000  # hc,c,oh,ho
dihedral_coeff	39 aat  -15.34960  107.73360  123.14510  # hc,c1,c_1,o_1
dihedral_coeff	40 aat    0.00000  107.73360  100.31820  # hc,c1,c_1,o_2
dihedral_coeff	41 aat    0.35980  117.94000  117.94000  # hc,cp,cp,hc
dihedral_coeff	42 aat    4.22960  117.94000  123.42000  # hc,cp,cp,oc
dihedral_coeff	43 aat    0.00000  112.13000  107.41000  # n4,c,c,o_2
dihedral_coeff	44 aat    0.00000  107.41000  111.27000  # o_2,c,c,oc
dihedral_coeff	45 aat    0.00000  107.41000  111.27000  # o_2,c,c,oh

# BondBond13 Coeffs

dihedral_coeff	 1 bb13    0.00000    1.53000    1.53000  # c,c,c,c
dihedral_coeff	 2 bb13    0.00000    1.53000    1.10100  # c,c,c,hc
dihedral_coeff	 3 bb13    0.00000    1.53000    1.43000  # c,c,c,o_2
dihedral_coeff	 4 bb13    0.00000    1.53000    1.23390  # c,c,c-,o-
dihedral_coeff	 5 bb13    0.00000    1.53000    1.53000  # c,c,c1,c
dihedral_coeff	 6 bb13    0.00000    1.53000    1.52020  # c,c,c1,c_1
dihedral_coeff	 7 bb13    0.00000    1.53000    1.10100  # c,c,c1,hc
dihedral_coeff	 8 bb13    0.00000    1.53000    1.51850  # c,c,n4,c
dihedral_coeff	 9 bb13    0.00000    1.53000    1.36830  # c,c,o_2,c_1
dihedral_coeff	10 bb13    0.00000    1.53000    1.37680  # c,c,oc,cp
dihedral_coeff	11 bb13    0.00000    1.53000    0.96500  # c,c,oh,ho
dihedral_coeff	12 bb13    0.00000    1.53000    1.53000  # c,c1,c,c1
dihedral_coeff	13 bb13    0.00000    1.53000    1.10100  # c,c1,c,hc
dihedral_coeff	14 bb13    0.00000    1.53000    1.20200  # c,c1,c_1,o_1
dihedral_coeff	15 bb13    0.00000    1.53000    1.36830  # c,c1,c_1,o_2
dihedral_coeff	16 bb13    0.00000    1.51850    1.10100  # c,n4,c,hc
dihedral_coeff	17 bb13    0.00000    1.43000    1.52020  # c,o_2,c_1,c1
dihedral_coeff	18 bb13    0.00000    1.43000    1.20200  # c,o_2,c_1,o_1
dihedral_coeff	19 bb13    0.00000    1.42000    1.41700  # c,oc,cp,cp
dihedral_coeff	20 bb13    0.00000    1.54830    1.10100  # c-,c,c,hc
dihedral_coeff	21 bb13    0.00000    1.54830    1.43000  # c-,c,c,o_2
dihedral_coeff	22 bb13    0.00000    1.53000    1.10100  # c1,c,c,hc
dihedral_coeff	23 bb13    0.00000    1.53000    1.52020  # c1,c,c1,c_1
dihedral_coeff	24 bb13    0.00000    1.53000    1.10100  # c1,c,c1,hc
dihedral_coeff	25 bb13    0.00000    1.52020    1.10100  # c_1,c1,c,hc
dihedral_coeff	26 bb13    0.00000    1.36830    1.10100  # c_1,o_2,c,hc
dihedral_coeff	27 bb13   53.00000    1.41700    1.41700  # cp,cp,cp,cp
dihedral_coeff	28 bb13   -6.27410    1.41700    1.09820  # cp,cp,cp,hc
dihedral_coeff	29 bb13   -2.24360    1.41700    1.37680  # cp,cp,cp,oc
dihedral_coeff	30 bb13    0.00000    1.37680    1.10100  # cp,oc,c,hc
dihedral_coeff	31 bb13    0.00000    1.10100    1.10100  # hc,c,c,hc
dihedral_coeff	32 bb13    0.00000    1.10100    1.51850  # hc,c,c,n4
dihedral_coeff	33 bb13    0.00000    1.10100    1.43000  # hc,c,c,o_2
dihedral_coeff	34 bb13    0.00000    1.10100    1.42000  # hc,c,c,oc
dihedral_coeff	35 bb13    0.00000    1.10100    1.42000  # hc,c,c,oh
dihedral_coeff	36 bb13    0.00000    1.10100    1.23390  # hc,c,c-,o-
dihedral_coeff	37 bb13    0.00000    1.10100    1.10100  # hc,c,c1,hc
dihedral_coeff	38 bb13    0.00000    1.10100    0.96500  # hc,c,oh,ho
dihedral_coeff	39 bb13    0.00000    1.10100    1.20200  # hc,c1,c_1,o_1
dihedral_coeff	40 bb13    0.00000    1.10100    1.36830  # hc,c1,c_1,o_2
dihedral_coeff	41 bb13   -1.70770    1.09820    1.09820  # hc,cp,cp,hc
dihedral_coeff	42 bb13    2.05170    1.09820    1.37680  # hc,cp,cp,oc
dihedral_coeff	43 bb13    0.00000    1.51850    1.43000  # n4,c,c,o_2
dihedral_coeff	44 bb13    0.00000    1.43000    1.42000  # o_2,c,c,oc
dihedral_coeff	45 bb13    0.00000    1.43000    1.42000  # o_2,c,c,oh

# Improper Coeffs

improper_coeff	 1    0.00000    0.00000  # c,c,c,hc
improper_coeff	 2    0.00000    0.00000  # c,c,c-,hc
improper_coeff	 3    0.00000    0.00000  # c,c,c1,hc
improper_coeff	 4    0.00000    0.00000  # c,c,hc,hc
improper_coeff	 5    0.00000    0.00000  # c,c,hc,o_2
improper_coeff	 6    0.00000    0.00000  # c,c,n4,hc
improper_coeff	 7    0.00000    0.00000  # c,c,oc,hc
improper_coeff	 8    0.00000    0.00000  # c,c,oh,hc
improper_coeff	 9    0.00000    0.00000  # c,c-,hc,hc
improper_coeff	10    0.00000    0.00000  # c,c1,c1,hc
improper_coeff	11    0.00000    0.00000  # c,c1,hc,hc
improper_coeff	12    0.00000    0.00000  # c,hc,hc,hc
improper_coeff	13    0.00000    0.00000  # c,hc,hc,n4
improper_coeff	14    0.00000    0.00000  # c,hc,hc,o_2
improper_coeff	15    0.00000    0.00000  # c,hc,hc,oc
improper_coeff	16    0.00000    0.00000  # c,hc,hc,oh
improper_coeff	17   44.15000    0.00000  # c-,c,o-,o-
improper_coeff	18    0.00000    0.00000  # c1,c,c,c_1
improper_coeff	19    0.00000    0.00000  # c1,c,c,hc
improper_coeff	20    0.00000    0.00000  # c1,c,c_1,hc
improper_coeff	21   46.92640    0.00000  # c_1,c1,o_2,o_1
improper_coeff	22    4.89120    0.00000  # cp,cp,cp,hc
improper_coeff	23   13.04210    0.00000  # cp,cp,cp,oc
improper_coeff	24    0.00000    0.00000  # n4,c,c,c

# AngleAngle Coeffs

improper_coeff	 1 aa   -1.31990   -1.31990    0.11840  112.67000  110.77000  110.77000  # c,c,c,hc
improper_coeff	 2 aa   -0.04140   -1.00330    2.45940  104.49000  110.77000  109.67000  # c,c,c-,hc
improper_coeff	 3 aa   -1.31990   -1.31990    0.11840  112.67000  110.77000  110.77000  # c,c,c1,hc
improper_coeff	 4 aa    0.27380   -0.48250    0.27380  110.77000  110.77000  107.66000  # c,c,hc,hc
improper_coeff	 5 aa    0.00000    0.00000    0.00000  110.77000  107.41000  107.68800  # c,c,hc,o_2
improper_coeff	 6 aa    7.02920    6.02740    4.24400  112.13000  110.77000  105.85000  # c,c,n4,hc
improper_coeff	 7 aa    0.16890    2.59260    3.91770  111.27000  110.77000  108.72800  # c,c,oc,hc
improper_coeff	 8 aa    0.16890    2.59260    3.91770  111.27000  110.77000  108.72800  # c,c,oh,hc
improper_coeff	 9 aa    2.72540   -1.80860    2.72540  109.67000  109.67000  107.66000  # c,c-,hc,hc
improper_coeff	10 aa   -1.31990   -1.31990    0.11840  112.67000  110.77000  110.77000  # c,c1,c1,hc
improper_coeff	11 aa    0.27380   -0.48250    0.27380  110.77000  110.77000  107.66000  # c,c1,hc,hc
improper_coeff	12 aa   -0.31570   -0.31570   -0.31570  107.66000  107.66000  107.66000  # c,hc,hc,hc
improper_coeff	13 aa    3.54750    3.54750    7.33650  107.66000  105.85000  105.85000  # c,hc,hc,n4
improper_coeff	14 aa    0.00000    0.00000    0.00000  107.66000  107.68800  107.68800  # c,hc,hc,o_2
improper_coeff	15 aa    2.42590    2.42590    2.12830  107.66000  108.72800  108.72800  # c,hc,hc,oc
improper_coeff	16 aa    2.42590    2.42590    2.12830  107.66000  108.72800  108.72800  # c,hc,hc,oh
improper_coeff	17 aa    0.00000    0.00000    0.00000  115.06000  115.06000  130.01000  # c-,c,o-,o-
improper_coeff	18 aa    0.00000    0.00000    0.00000  112.67000  108.52950  108.52950  # c1,c,c,c_1
improper_coeff	19 aa   -1.31990   -1.31990    0.11840  112.67000  110.77000  110.77000  # c1,c,c,hc
improper_coeff	20 aa    2.04030   -1.82020    1.08270  108.52950  110.77000  107.73360  # c1,c,c_1,hc
improper_coeff	21 aa    0.00000    0.00000    0.00000  100.31820  123.14510  120.79700  # c_1,c1,o_2,o_1
improper_coeff	22 aa    0.00000    0.00000    0.00000  118.90000  117.94000  117.94000  # cp,cp,cp,hc
improper_coeff	23 aa    0.00000    0.00000    0.00000  118.90000  123.42000  123.42000  # cp,cp,cp,oc
improper_coeff	24 aa   -1.51550   -1.51550   -1.51550  109.77000  109.77000  109.77000  # n4,c,c,c

pair_modify     tail no
kspace_style pppm 1.0e-4
kspace_modify   slab 3.0
neighbor        2.0 bin
neigh_modify    delay 0 every 1 check yes

unfix           1
unfix           2

change_box all z final -50 50
Changing box ...
  orthogonal box = (0 0 -50) to (80.6296 82.864 50)
write_data      Polymer_G42.data
System init for write_data ...
PPPM Kokkos initialization ...
WARNING: System is not charge neutral, net charge = 36
For more information see https://docs.lammps.org/err0029 (src/kspace.cpp:330)
  using 12-bit tables for long-range coulomb
  G vector (1/distance) = 0.18391259
  grid = 24 24 60
  stencil order = 5
  estimated absolute RMS force accuracy = 0.029064965
  estimated relative force accuracy = 8.7528278e-05
  using double precision cuFFT
  3d grid and FFT values/proc = 52142 34560
Generated 78 of 78 mixed pair_coeff terms from sixthpower/sixthpower mixing rule
Neighbor list info ...
  update: every = 1 steps, delay = 0 steps, check = yes
  max neighbors/atom: 2000, page size: 100000
  master list distance cutoff = 14
  ghost atom cutoff = 14
  binsize = 5, bins = 17 17 20
  1 neighbor lists, perpetual/occasional/extra = 1 0 0
  (1) pair lj/class2/coul/long/kk, perpetual
      attributes: full, newton off, kokkos_device
      pair build: full/bin/kk/device
      stencil: full/bin/3d
      bin: kk/device
Total wall time: 1:05:22
