LAMMPS (22 Jul 2025 - Update 4)
KOKKOS mode with Kokkos version 4.6.2 is enabled
  will use up to 1 GPU(s) per node
  using 1 OpenMP thread(s) per MPI task
package kokkos
package kokkos newton off
units           real
atom_style      full
boundary        p p p
comm_style      brick
# newton off
special_bonds   lj/coul 0.0 0.0 1.0
bond_style      class2
angle_style     class2
dihedral_style  class2
improper_style  class2
pair_style      soft 10.0
read_data       setup.data
Reading data file ...
  orthogonal box = (0 0 -160) to (80.6296 82.864 160)
  1 by 1 by 1 MPI processor grid
  reading atoms ...
  38466 atoms
  scanning bonds ...
  4 = max bonds/atom
  scanning angles ...
  18 = max angles/atom
  scanning dihedrals ...
  39 = max dihedrals/atom
  scanning impropers ...
  16 = max impropers/atom
  orthogonal box = (0 0 -160) to (80.6296 82.864 160)
  1 by 1 by 1 MPI processor grid
  reading bonds ...
  38628 bonds
  reading angles ...
  72288 angles
  reading dihedrals ...
  101682 dihedrals
  reading impropers ...
  43650 impropers
Finding 1-2 1-3 1-4 neighbors ...
  special bond factors lj:    0        0        1       
  special bond factors coul:  0        0        1       
     4 = max # of 1-2 neighbors
    12 = max # of 1-3 neighbors
    16 = max # of special neighbors
  special bonds CPU = 0.037 seconds
  read_data CPU = 2.090 seconds
include         setup.params
# LAMMPS parameters created by EMC v9.4.4, build Jun 30 2026 09:51:48

# Variables

variable	seed		index	666777
variable	ntotal		index	38466
variable	fshape		index	1
variable	output		index	setup
variable	field		index	cff/pcff/pcff
variable	location1	index	~/Apps/EMC/field/
variable	nav		index	0.6022141179
variable	temperature	index	300
variable	radius		index	3.5
variable	nrelax		index	1000
variable	weight_nonbond	index	0.0001
variable	weight_bond	index	0.0001
variable	weight_focus	index	1
variable	cutoff		index	12
variable	charge_cutoff	index	12
variable	kappa		index	1
variable	density1	index	1
variable	lprevious	index	0
variable	lphase		index	80.6296
variable	f_Gmax		index	18
variable	chem_hea	index	*CC(*)C(=O)OCCO
variable	chem_ba		index	*CC(*)C(=O)OCCCC
variable	chem_cbea	index	*CC(*)C(=O)OCCC(=O)[O-]
variable	chem_atac	index	*CC(*)C(=O)OCC[N+](C)(C)C
variable	chem_pea	index	*CC(*)C(=O)OCCOc1ccccc1
variable	chem_t		index	*C
variable	lg_hea		index	16
variable	lg_ba		index	21
variable	lg_cbea		index	17
variable	lg_atac		index	27
variable	lg_pea		index	26
variable	lg_t		index	4
variable	norm_Gmax	index	1
variable	l_Gmax		index	2137
variable	mg_hea		index	116.11771
variable	mg_ba		index	128.17249
variable	mg_cbea		index	143.12029
variable	mg_atac		index	158.22222
variable	mg_pea		index	192.21649
variable	mg_t		index	15.03506
variable	m_Gmax		index	13867.24439
variable	n_Gmax		index	18
variable	mtotal		index	249610.39902
variable	nphase1		index	38466
variable	mphase1		index	249610.39902
variable	vphase1		index	414487.790307
variable	lbox		index	74.5596591511
variable	lphase1		index	74.5596591511
variable	lxx		index	80.6296
variable	lyy		index	82.864
variable	lzz		index	80
variable	lzy		index	0
variable	lzx		index	0
variable	lyx		index	0
variable	vtotal		index	534503.293952
variable	nl_Gmax		index	18

# Types

variable	type_c		index	1
variable	type_cm		index	2
variable	type_c1		index	3
variable	type_c_1	index	4
variable	type_cp		index	5
variable	type_hc		index	6
variable	type_ho		index	7
variable	type_n4		index	8
variable	type_om		index	9
variable	type_o_1	index	10
variable	type_o_2	index	11
variable	type_oc		index	12
variable	type_oh		index	13

variable	type_bond_c_c	index	1
variable	type_bond_c_cm	index	2
variable	type_bond_c_c1	index	3
variable	type_bond_c_hc	index	4
variable	type_bond_c_n4	index	5
variable	type_bond_c_o_2	index	6
variable	type_bond_c_oc	index	7
variable	type_bond_c_oh	index	8
variable	type_bond_cm_om	index	9
variable	type_bond_c1_c_1 index	10
variable	type_bond_c1_hc	index	11
variable	type_bond_c_1_o_1 index	12
variable	type_bond_c_1_o_2 index	13
variable	type_bond_cp_cp	index	14
variable	type_bond_cp_hc	index	15
variable	type_bond_cp_oc	index	16
variable	type_bond_ho_oh	index	17

variable	type_angle_c_c_c index	1
variable	type_angle_c_c_cm index	2
variable	type_angle_c_c_c1 index	3
variable	type_angle_c_c_hc index	4
variable	type_angle_c_c_n4 index	5
variable	type_angle_c_c_o_2 index	6
variable	type_angle_c_c_oc index	7
variable	type_angle_c_c_oh index	8
variable	type_angle_c_cm_om index	9
variable	type_angle_c_c1_c index	10
variable	type_angle_c_c1_c_1 index	11
variable	type_angle_c_c1_hc index	12
variable	type_angle_c_n4_c index	13
variable	type_angle_c_o_2_c_1 index	14
variable	type_angle_c_oc_cp index	15
variable	type_angle_c_oh_ho index	16
variable	type_angle_cm_c_hc index	17
variable	type_angle_c1_c_c1 index	18
variable	type_angle_c1_c_hc index	19
variable	type_angle_c1_c_1_o_1 index	20
variable	type_angle_c1_c_1_o_2 index	21
variable	type_angle_c_1_c1_hc index	22
variable	type_angle_cp_cp_cp index	23
variable	type_angle_cp_cp_hc index	24
variable	type_angle_cp_cp_oc index	25
variable	type_angle_hc_c_hc index	26
variable	type_angle_hc_c_n4 index	27
variable	type_angle_hc_c_o_2 index	28
variable	type_angle_hc_c_oc index	29
variable	type_angle_hc_c_oh index	30
variable	type_angle_om_cm_om index	31
variable	type_angle_o_1_c_1_o_2 index	32

# Clusters

variable	n0_Gmax		index	1
variable	n1_Gmax		index	18
variable	nl_Gmax		index	18

# Flags

variable	flag_charged	index	1

# Masses

mass		 1    12.01115  # c
mass		 2    12.01115  # c-
mass		 3    12.01115  # c1
mass		 4    12.01115  # c_1
mass		 5    12.01115  # cp
mass		 6     1.00797  # hc
mass		 7     1.00797  # ho
mass		 8    14.00670  # n4
mass		 9    15.99940  # o-
mass		10    15.99940  # o_1
mass		11    15.99940  # o_2
mass		12    15.99940  # oc
mass		13    15.99940  # oh

# Potentials

pair_style	lj/class2/coul/long ${cutoff} ${charge_cutoff}  # 9.5
pair_style	lj/class2/coul/long 12 ${charge_cutoff}  
pair_style	lj/class2/coul/long 12 12  
bond_style	class2
angle_style	class2
dihedral_style	class2
improper_style	class2
pair_modify	mix sixthpower tail yes
special_bonds	lj/coul 0 0 1

# Pair Coeffs

pair_coeff	 1  1    0.05400    4.01000  # c,c
pair_coeff	 2  2    0.12000    3.90800  # c-,c-
pair_coeff	 3  3    0.05400    4.01000  # c1,c1
pair_coeff	 4  4    0.12000    3.81000  # c_1,c_1
pair_coeff	 5  5    0.06400    4.01000  # cp,cp
pair_coeff	 6  6    0.02000    2.99500  # hc,hc
pair_coeff	 7  7    0.01300    1.09800  # ho,ho
pair_coeff	 8  8    0.06500    3.26200  # n4,n4
pair_coeff	 9  9    0.16700    3.59600  # o-,o-
pair_coeff	10 10    0.26700    3.30000  # o_1,o_1
pair_coeff	11 11    0.24000    3.42000  # o_2,o_2
pair_coeff	12 12    0.24000    3.53500  # oc,oc
pair_coeff	13 13    0.24000    3.53500  # oh,oh

# Bond Coeffs

bond_coeff	 1    1.53000  299.67000 -501.77000  679.81000  # c,c
bond_coeff	 2    1.54830  253.08000 -449.03000  457.32000  # c,c-
bond_coeff	 3    1.53000  299.67000 -501.77000  679.81000  # c,c1
bond_coeff	 4    1.10100  345.00000 -691.89000  844.60000  # c,hc
bond_coeff	 5    1.51850  293.17000 -603.78820  629.69000  # c,n4
bond_coeff	 6    1.43000  326.72730 -608.53060  689.03330  # c,o_2
bond_coeff	 7    1.42000  400.39540 -835.19510 1313.01420  # c,oc
bond_coeff	 8    1.42000  400.39540 -835.19510 1313.01420  # c,oh
bond_coeff	 9    1.23390  711.35000 -1543.90000 1858.60000  # c-,o-
bond_coeff	10    1.52020  253.70670 -423.03700  396.90000  # c1,c_1
bond_coeff	11    1.10100  345.00000 -691.89000  844.60000  # c1,hc
bond_coeff	12    1.20200  851.14030 -1918.48820 2160.76590  # c_1,o_1
bond_coeff	13    1.36830  367.14810 -794.79080 1055.23190  # c_1,o_2
bond_coeff	14    1.41700  470.83610 -627.61790 1327.63450  # cp,cp
bond_coeff	15    1.09820  372.82510 -803.45260  894.31730  # cp,hc
bond_coeff	16    1.37680  428.87980 -738.23510 1114.96550  # cp,oc
bond_coeff	17    0.96500  532.50620 -1282.90500 2004.76580  # ho,oh

# Angle Coeffs

angle_coeff	 1  112.67000   39.51600   -7.44300   -9.55830  # c,c,c
angle_coeff	 2  104.49000   31.37500   -4.40230   -6.52710  # c,c,c-
angle_coeff	 3  112.67000   39.51600   -7.44300   -9.55830  # c,c,c1
angle_coeff	 4  110.77000   41.45300  -10.60400    5.12900  # c,c,hc
angle_coeff	 5  112.13000   66.45200    4.86940   37.78600  # c,c,n4
angle_coeff	 6  107.41000   63.39070  -13.45130    1.66500  # c,c,o_2
angle_coeff	 7  111.27000   54.53810   -8.36420  -13.08380  # c,c,oc
angle_coeff	 8  111.27000   54.53810   -8.36420  -13.08380  # c,c,oh
angle_coeff	 9  115.06000   59.09600  -15.14300  -12.98200  # c,c-,o-
angle_coeff	10  112.67000   39.51600   -7.44300   -9.55830  # c,c1,c
angle_coeff	11  108.52950   51.97470   -9.48510  -10.99850  # c,c1,c_1
angle_coeff	12  110.77000   41.45300  -10.60400    5.12900  # c,c1,hc
angle_coeff	13  109.77000   44.82200   -3.91320    0.00000  # c,n4,c
angle_coeff	14  113.28800   61.28680  -28.97860    7.99290  # c,o_2,c_1
angle_coeff	15  102.96950   38.97390   -6.25950   -8.17100  # c,oc,cp
angle_coeff	16  105.80000   52.70610  -12.10900   -9.86810  # c,oh,ho
angle_coeff	17  109.67000   37.91900   -7.38770   -8.06940  # c-,c,hc
angle_coeff	18  112.67000   39.51600   -7.44300   -9.55830  # c1,c,c1
angle_coeff	19  110.77000   41.45300  -10.60400    5.12900  # c1,c,hc
angle_coeff	20  123.14510   55.54310  -17.21230    0.13480  # c1,c_1,o_1
angle_coeff	21  100.31820   38.86310   -3.83230   -7.98020  # c1,c_1,o_2
angle_coeff	22  107.73360   40.60990  -28.81210    0.00000  # c_1,c1,hc
angle_coeff	23  118.90000   61.02260  -34.99310    0.00000  # cp,cp,cp
angle_coeff	24  117.94000   35.15580  -12.46820    0.00000  # cp,cp,hc
angle_coeff	25  123.42000   73.67810  -21.67870    0.00000  # cp,cp,oc
angle_coeff	26  107.66000   39.64100  -12.92100   -2.43180  # hc,c,hc
angle_coeff	27  105.85000   72.26300  -28.19230    0.00000  # hc,c,n4
angle_coeff	28  107.68800   65.48010  -10.34980    5.88660  # hc,c,o_2
angle_coeff	29  108.72800   58.54460  -10.80880  -12.40060  # hc,c,oc
angle_coeff	30  108.72800   58.54460  -10.80880  -12.40060  # hc,c,oh
angle_coeff	31  130.01000  111.29000  -52.33900  -28.10700  # o-,c-,o-
angle_coeff	32  120.79700   95.34460  -32.28690    6.37780  # o_1,c_1,o_2

# BondBond Coeffs

angle_coeff	 1 bb    0.00000    1.53000    1.53000  # c,c,c
angle_coeff	 2 bb   16.46500    1.53000    1.54830  # c,c,c-
angle_coeff	 3 bb    0.00000    1.53000    1.53000  # c,c,c1
angle_coeff	 4 bb    3.38720    1.53000    1.10100  # c,c,hc
angle_coeff	 5 bb   16.42800    1.53000    1.51850  # c,c,n4
angle_coeff	 6 bb   23.26470    1.53000    1.43000  # c,c,o_2
angle_coeff	 7 bb   11.43180    1.53000    1.42000  # c,c,oc
angle_coeff	 8 bb   11.43180    1.53000    1.42000  # c,c,oh
angle_coeff	 9 bb   57.87500    1.54830    1.23390  # c,c-,o-
angle_coeff	10 bb    0.00000    1.53000    1.53000  # c,c1,c
angle_coeff	11 bb    5.41990    1.53000    1.52020  # c,c1,c_1
angle_coeff	12 bb    3.38720    1.53000    1.10100  # c,c1,hc
angle_coeff	13 bb   14.95900    1.51850    1.51850  # c,n4,c
angle_coeff	14 bb   45.45030    1.43000    1.36830  # c,o_2,c_1
angle_coeff	15 bb    0.00000    1.42000    1.37680  # c,oc,cp
angle_coeff	16 bb   -9.68790    1.42000    0.96500  # c,oh,ho
angle_coeff	17 bb   -1.17010    1.54830    1.10100  # c-,c,hc
angle_coeff	18 bb    0.00000    1.53000    1.53000  # c1,c,c1
angle_coeff	19 bb    3.38720    1.53000    1.10100  # c1,c,hc
angle_coeff	20 bb   46.06850    1.52020    1.20200  # c1,c_1,o_1
angle_coeff	21 bb   19.10690    1.52020    1.36830  # c1,c_1,o_2
angle_coeff	22 bb    0.71150    1.52020    1.10100  # c_1,c1,hc
angle_coeff	23 bb   68.28560    1.41700    1.41700  # cp,cp,cp
angle_coeff	24 bb    1.07950    1.41700    1.09820  # cp,cp,hc
angle_coeff	25 bb   48.47540    1.41700    1.37680  # cp,cp,oc
angle_coeff	26 bb    5.33160    1.10100    1.10100  # hc,c,hc
angle_coeff	27 bb   -1.47970    1.10100    1.51850  # hc,c,n4
angle_coeff	28 bb    5.64540    1.10100    1.43000  # hc,c,o_2
angle_coeff	29 bb   23.19790    1.10100    1.42000  # hc,c,oc
angle_coeff	30 bb   23.19790    1.10100    1.42000  # hc,c,oh
angle_coeff	31 bb  166.59000    1.23390    1.23390  # o-,c-,o-
angle_coeff	32 bb  121.48800    1.20200    1.36830  # o_1,c_1,o_2

# BondAngle Coeffs

angle_coeff	 1 ba    8.01600    8.01600    1.53000    1.53000  # c,c,c
angle_coeff	 2 ba   23.08400   19.15900    1.53000    1.54830  # c,c,c-
angle_coeff	 3 ba    8.01600    8.01600    1.53000    1.53000  # c,c,c1
angle_coeff	 4 ba   20.75400   11.42100    1.53000    1.10100  # c,c,hc
angle_coeff	 5 ba   14.06200   49.77300    1.53000    1.51850  # c,c,n4
angle_coeff	 6 ba   23.39200   47.94870    1.53000    1.43000  # c,c,o_2
angle_coeff	 7 ba    2.68680   20.40330    1.53000    1.42000  # c,c,oc
angle_coeff	 8 ba    2.68680   20.40330    1.53000    1.42000  # c,c,oh
angle_coeff	 9 ba   51.58400   62.05600    1.54830    1.23390  # c,c-,o-
angle_coeff	10 ba    8.01600    8.01600    1.53000    1.53000  # c,c1,c
angle_coeff	11 ba   18.16780   15.87580    1.53000    1.52020  # c,c1,c_1
angle_coeff	12 ba   20.75400   11.42100    1.53000    1.10100  # c,c1,hc
angle_coeff	13 ba   23.09300   23.09300    1.51850    1.51850  # c,n4,c
angle_coeff	14 ba   41.91160   46.46080    1.43000    1.36830  # c,o_2,c_1
angle_coeff	15 ba    0.00000    0.00000    1.42000    1.37680  # c,oc,cp
angle_coeff	16 ba   28.58000   18.92770    1.42000    0.96500  # c,oh,ho
angle_coeff	17 ba   11.86500   14.96500    1.54830    1.10100  # c-,c,hc
angle_coeff	18 ba    8.01600    8.01600    1.53000    1.53000  # c1,c,c1
angle_coeff	19 ba   20.75400   11.42100    1.53000    1.10100  # c1,c,hc
angle_coeff	20 ba   34.99820   37.12980    1.52020    1.20200  # c1,c_1,o_1
angle_coeff	21 ba    1.34350    4.69780    1.52020    1.36830  # c1,c_1,o_2
angle_coeff	22 ba   12.46320    9.17650    1.52020    1.10100  # c_1,c1,hc
angle_coeff	23 ba   28.87080   28.87080    1.41700    1.41700  # cp,cp,cp
angle_coeff	24 ba   20.00330   24.21830    1.41700    1.09820  # cp,cp,hc
angle_coeff	25 ba   58.47900  107.68060    1.41700    1.37680  # cp,cp,oc
angle_coeff	26 ba   18.10300   18.10300    1.10100    1.10100  # hc,c,hc
angle_coeff	27 ba   15.88200   50.01800    1.10100    1.51850  # hc,c,n4
angle_coeff	28 ba    8.68640   57.49750    1.10100    1.43000  # hc,c,o_2
angle_coeff	29 ba    4.61890   55.32700    1.10100    1.42000  # hc,c,oc
angle_coeff	30 ba    4.61890   55.32700    1.10100    1.42000  # hc,c,oh
angle_coeff	31 ba   73.35000   73.35000    1.23390    1.23390  # o-,c-,o-
angle_coeff	32 ba   76.26140   71.87610    1.20200    1.36830  # o_1,c_1,o_2

# Dihedral Coeffs

dihedral_coeff	 1    0.00000    0.00000    0.05140    0.00000   -0.14300    0.00000  # c,c,c,c
dihedral_coeff	 2    0.00000    0.00000    0.03160    0.00000   -0.16810    0.00000  # c,c,c,hc
dihedral_coeff	 3    0.00000    0.00000    0.00000    0.00000   -0.25000    0.00000  # c,c,c,o_2
dihedral_coeff	 4    1.73110    0.00000    1.85100    0.00000   -0.19330    0.00000  # c,c,c-,o-
dihedral_coeff	 5    0.00000    0.00000    0.05140    0.00000   -0.14300    0.00000  # c,c,c1,c
dihedral_coeff	 6    0.09720    0.00000    0.07220    0.00000   -0.25810    0.00000  # c,c,c1,c_1
dihedral_coeff	 7    0.00000    0.00000    0.03160    0.00000   -0.16810    0.00000  # c,c,c1,hc
dihedral_coeff	 8    0.70770    0.00000   -0.37440    0.00000   -0.19140    0.00000  # c,c,n4,c
dihedral_coeff	 9    0.00000    0.00000    0.00000    0.00000   -0.19320    0.00000  # c,c,o_2,c_1
dihedral_coeff	10    0.00000    0.00000    0.00000    0.00000    0.13000  180.00000  # c,c,oc,cp
dihedral_coeff	11   -0.67320    0.00000   -0.47780    0.00000   -0.16700    0.00000  # c,c,oh,ho
dihedral_coeff	12    0.00000    0.00000    0.05140    0.00000   -0.14300    0.00000  # c,c1,c,c1
dihedral_coeff	13    0.00000    0.00000    0.03160    0.00000   -0.16810    0.00000  # c,c1,c,hc
dihedral_coeff	14    0.04420    0.00000    0.02920    0.00000    0.05620    0.00000  # c,c1,c_1,o_1
dihedral_coeff	15    1.83410    0.00000    2.06030    0.00000   -0.01950    0.00000  # c,c1,c_1,o_2
dihedral_coeff	16    0.36240    0.00000    0.10120    0.00000   -0.24860    0.00000  # c,n4,c,hc
dihedral_coeff	17   -2.55940    0.00000    2.20130    0.00000    0.03250    0.00000  # c,o_2,c_1,c1
dihedral_coeff	18    0.00000    0.00000    2.20890    0.00000    0.00000    0.00000  # c,o_2,c_1,o_1
dihedral_coeff	19    0.00000    0.00000    1.50000    0.00000    0.00000    0.00000  # c,oc,cp,cp
dihedral_coeff	20   -1.27670    0.00000    0.59490    0.00000    0.23790    0.00000  # c-,c,c,hc
dihedral_coeff	21    0.00000    0.00000    0.00000    0.00000    0.15800  180.00000  # c-,c,c,o_2
dihedral_coeff	22    0.00000    0.00000    0.03160    0.00000   -0.16810    0.00000  # c1,c,c,hc
dihedral_coeff	23    0.09720    0.00000    0.07220    0.00000   -0.25810    0.00000  # c1,c,c1,c_1
dihedral_coeff	24    0.00000    0.00000    0.03160    0.00000   -0.16810    0.00000  # c1,c,c1,hc
dihedral_coeff	25   -0.02280    0.00000    0.02800    0.00000   -0.18630    0.00000  # c_1,c1,c,hc
dihedral_coeff	26    0.00000    0.00000    0.00000    0.00000   -0.19320    0.00000  # c_1,o_2,c,hc
dihedral_coeff	27    8.36670    0.00000    1.19320    0.00000    0.00000    0.00000  # cp,cp,cp,cp
dihedral_coeff	28    0.00000    0.00000    3.96610    0.00000    0.00000    0.00000  # cp,cp,cp,hc
dihedral_coeff	29    0.00000    0.00000    4.84980    0.00000    0.00000    0.00000  # cp,cp,cp,oc
dihedral_coeff	30    0.95130    0.00000    0.11550    0.00000    0.07200    0.00000  # cp,oc,c,hc
dihedral_coeff	31   -0.14320    0.00000    0.06170    0.00000   -0.10830    0.00000  # hc,c,c,hc
dihedral_coeff	32   -0.21790    0.00000   -0.41270    0.00000   -0.12520    0.00000  # hc,c,c,n4
dihedral_coeff	33    0.00000    0.00000    0.00000    0.00000   -0.25000    0.00000  # hc,c,c,o_2
dihedral_coeff	34   -0.14350    0.00000    0.25300    0.00000   -0.09050    0.00000  # hc,c,c,oc
dihedral_coeff	35   -0.14350    0.00000    0.25300    0.00000   -0.09050    0.00000  # hc,c,c,oh
dihedral_coeff	36   -2.59990    0.00000    1.04880    0.00000   -0.20890    0.00000  # hc,c,c-,o-
dihedral_coeff	37   -0.14320    0.00000    0.06170    0.00000   -0.10830    0.00000  # hc,c,c1,hc
dihedral_coeff	38    0.18630    0.00000   -0.43380    0.00000   -0.21210    0.00000  # hc,c,oh,ho
dihedral_coeff	39   -0.18040    0.00000    0.00120    0.00000    0.03710    0.00000  # hc,c1,c_1,o_1
dihedral_coeff	40   -0.63590    0.00000    1.48070    0.00000   -0.04380    0.00000  # hc,c1,c_1,o_2
dihedral_coeff	41    0.00000    0.00000    1.87690    0.00000    0.00000    0.00000  # hc,cp,cp,hc
dihedral_coeff	42    0.00000    0.00000    1.72340    0.00000    0.00000    0.00000  # hc,cp,cp,oc
dihedral_coeff	43    0.00000    0.00000    0.00000    0.00000    0.15800  180.00000  # n4,c,c,o_2
dihedral_coeff	44    0.00000    0.00000    0.00000    0.00000    0.15800  180.00000  # o_2,c,c,oc
dihedral_coeff	45    0.00000    0.00000    0.00000    0.00000    0.15800  180.00000  # o_2,c,c,oh

# MiddleBondTorsion Coeffs

dihedral_coeff	 1 mbt  -17.78700   -7.18770    0.00000    1.53000  # c,c,c,c
dihedral_coeff	 2 mbt  -14.87900   -3.65810   -0.31380    1.53000  # c,c,c,hc
dihedral_coeff	 3 mbt    0.00000    0.00000    0.00000    1.53000  # c,c,c,o_2
dihedral_coeff	 4 mbt    0.67980    0.93880   -1.84780    1.54830  # c,c,c-,o-
dihedral_coeff	 5 mbt  -17.78700   -7.18770    0.00000    1.53000  # c,c,c1,c
dihedral_coeff	 6 mbt   -1.59450    0.22670   -0.69110    1.53000  # c,c,c1,c_1
dihedral_coeff	 7 mbt  -14.87900   -3.65810   -0.31380    1.53000  # c,c,c1,hc
dihedral_coeff	 8 mbt    6.25790   -5.08180    6.05110    1.51850  # c,c,n4,c
dihedral_coeff	 9 mbt   -5.43500    0.00000    0.00000    1.43000  # c,c,o_2,c_1
dihedral_coeff	10 mbt    0.00000    0.00000    0.00000    1.42000  # c,c,oc,cp
dihedral_coeff	11 mbt    1.24720    0.00000    0.74850    1.42000  # c,c,oh,ho
dihedral_coeff	12 mbt  -17.78700   -7.18770    0.00000    1.53000  # c,c1,c,c1
dihedral_coeff	13 mbt  -14.87900   -3.65810   -0.31380    1.53000  # c,c1,c,hc
dihedral_coeff	14 mbt    0.33880   -0.10960    0.12190    1.52020  # c,c1,c_1,o_1
dihedral_coeff	15 mbt  -17.32800   -5.79000   -3.21140    1.52020  # c,c1,c_1,o_2
dihedral_coeff	16 mbt    0.76300    2.63030   -2.59740    1.51850  # c,n4,c,hc
dihedral_coeff	17 mbt    1.34450    3.55150   -4.92020    1.36830  # c,o_2,c_1,c1
dihedral_coeff	18 mbt    4.26000    0.00000    0.00000    1.36830  # c,o_2,c_1,o_1
dihedral_coeff	19 mbt    0.00000    0.00000    0.00000    1.37680  # c,oc,cp,cp
dihedral_coeff	20 mbt  -13.64200   -0.88430    0.21180    1.53000  # c-,c,c,hc
dihedral_coeff	21 mbt    0.00000    0.00000    0.00000    1.53000  # c-,c,c,o_2
dihedral_coeff	22 mbt  -14.87900   -3.65810   -0.31380    1.53000  # c1,c,c,hc
dihedral_coeff	23 mbt   -1.59450    0.22670   -0.69110    1.53000  # c1,c,c1,c_1
dihedral_coeff	24 mbt  -14.87900   -3.65810   -0.31380    1.53000  # c1,c,c1,hc
dihedral_coeff	25 mbt   -3.50390    1.24580   -0.76100    1.53000  # c_1,c1,c,hc
dihedral_coeff	26 mbt    0.00000    0.00000    0.00000    1.43000  # c_1,o_2,c,hc
dihedral_coeff	27 mbt   27.59890   -2.31200    0.00000    1.41700  # cp,cp,cp,cp
dihedral_coeff	28 mbt    0.00000   -1.15210    0.00000    1.41700  # cp,cp,cp,hc
dihedral_coeff	29 mbt    0.00000    4.82550    0.00000    1.41700  # cp,cp,cp,oc
dihedral_coeff	30 mbt    0.00000    0.00000    0.00000    1.42000  # cp,oc,c,hc
dihedral_coeff	31 mbt  -14.26100   -0.53220   -0.48640    1.53000  # hc,c,c,hc
dihedral_coeff	32 mbt   -9.88260   -3.71380   -0.10220    1.53000  # hc,c,c,n4
dihedral_coeff	33 mbt    0.00000    0.00000    0.00000    1.53000  # hc,c,c,o_2
dihedral_coeff	34 mbt  -16.79750   -1.22960   -0.27500    1.53000  # hc,c,c,oc
dihedral_coeff	35 mbt  -16.79750   -1.22960   -0.27500    1.53000  # hc,c,c,oh
dihedral_coeff	36 mbt   -5.70090    0.77580   -0.40900    1.54830  # hc,c,c-,o-
dihedral_coeff	37 mbt  -14.26100   -0.53220   -0.48640    1.53000  # hc,c,c1,hc
dihedral_coeff	38 mbt    0.00000    0.92410   -0.58890    1.42000  # hc,c,oh,ho
dihedral_coeff	39 mbt    0.23590    0.91390    0.95940    1.52020  # hc,c1,c_1,o_1
dihedral_coeff	40 mbt  -13.76860   -2.59590    1.19340    1.52020  # hc,c1,c_1,o_2
dihedral_coeff	41 mbt    0.00000    4.82280    0.00000    1.41700  # hc,cp,cp,hc
dihedral_coeff	42 mbt    0.00000    5.54320    0.00000    1.41700  # hc,cp,cp,oc
dihedral_coeff	43 mbt    0.00000    0.00000    0.00000    1.53000  # n4,c,c,o_2
dihedral_coeff	44 mbt    0.00000    0.00000    0.00000    1.53000  # o_2,c,c,oc
dihedral_coeff	45 mbt    0.00000    0.00000    0.00000    1.53000  # o_2,c,c,oh

# EndBondTorsion Coeffs

dihedral_coeff	 1 ebt   -0.07320    0.00000    0.00000   -0.07320    0.00000    0.00000    1.53000    1.53000  # c,c,c,c
dihedral_coeff	 2 ebt    0.24860    0.24220   -0.09250    0.08140    0.05910    0.22190    1.53000    1.10100  # c,c,c,hc
dihedral_coeff	 3 ebt    0.00000    0.00000    0.00000    0.00000    0.00000    0.00000    1.53000    1.43000  # c,c,c,o_2
dihedral_coeff	 4 ebt    0.00000    0.00000    0.00000    0.00000    0.00000    0.00000    1.53000    1.23390  # c,c,c-,o-
dihedral_coeff	 5 ebt   -0.07320    0.00000    0.00000   -0.07320    0.00000    0.00000    1.53000    1.53000  # c,c,c1,c
dihedral_coeff	 6 ebt    0.00620   -0.00020    0.00360    0.00550    0.00600   -0.00090    1.53000    1.52020  # c,c,c1,c_1
dihedral_coeff	 7 ebt    0.24860    0.24220   -0.09250    0.08140    0.05910    0.22190    1.53000    1.10100  # c,c,c1,hc
dihedral_coeff	 8 ebt    0.00000    0.00000    0.00000    0.00000    0.00000    0.00000    1.53000    1.51850  # c,c,n4,c
dihedral_coeff	 9 ebt    0.00000    0.00000    0.00000    0.00000    0.00000    0.00000    1.53000    1.36830  # c,c,o_2,c_1
dihedral_coeff	10 ebt    0.00000    0.00000    0.00000    0.00000    0.00000    0.00000    1.53000    1.37680  # c,c,oc,cp
dihedral_coeff	11 ebt   -0.58000    0.90040    0.00000    0.00000    0.53430    0.90250    1.53000    0.96500  # c,c,oh,ho
dihedral_coeff	12 ebt   -0.07320    0.00000    0.00000   -0.07320    0.00000    0.00000    1.53000    1.53000  # c,c1,c,c1
dihedral_coeff	13 ebt    0.24860    0.24220   -0.09250    0.08140    0.05910    0.22190    1.53000    1.10100  # c,c1,c,hc
dihedral_coeff	14 ebt    0.26540    0.05030    0.10460   -0.28100    0.08160   -0.15220    1.53000    1.20200  # c,c1,c_1,o_1
dihedral_coeff	15 ebt    0.00000    0.00000    0.00000    0.00000    0.00000    0.00000    1.53000    1.36830  # c,c1,c_1,o_2
dihedral_coeff	16 ebt    0.00000    0.00000    0.00000    0.00000    0.00000    0.00000    1.51850    1.10100  # c,n4,c,hc
dihedral_coeff	17 ebt    0.00000    0.00000    0.00000    0.00000    0.00000    0.00000    1.43000    1.52020  # c,o_2,c_1,c1
dihedral_coeff	18 ebt    0.00000    0.00000    0.00000    0.00000    0.00000    0.00000    1.43000    1.20200  # c,o_2,c_1,o_1
dihedral_coeff	19 ebt    0.00000    0.00000    0.00000    0.00000    0.00000    0.00000    1.42000    1.41700  # c,oc,cp,cp
dihedral_coeff	20 ebt    0.00000    0.00000    0.00000    0.00000    0.00000    0.00000    1.54830    1.10100  # c-,c,c,hc
dihedral_coeff	21 ebt    0.00000    0.00000    0.00000    0.00000    0.00000    0.00000    1.54830    1.43000  # c-,c,c,o_2
dihedral_coeff	22 ebt    0.24860    0.24220   -0.09250    0.08140    0.05910    0.22190    1.53000    1.10100  # c1,c,c,hc
dihedral_coeff	23 ebt    0.00620   -0.00020    0.00360    0.00550    0.00600   -0.00090    1.53000    1.52020  # c1,c,c1,c_1
dihedral_coeff	24 ebt    0.24860    0.24220   -0.09250    0.08140    0.05910    0.22190    1.53000    1.10100  # c1,c,c1,hc
dihedral_coeff	25 ebt   -0.02040    0.36280   -0.44260   -0.00970   -0.03150   -0.07550    1.52020    1.10100  # c_1,c1,c,hc
dihedral_coeff	26 ebt    0.00000    0.00000    0.00000    0.00000    0.00000    0.00000    1.36830    1.10100  # c_1,o_2,c,hc
dihedral_coeff	27 ebt   -0.11850    6.32040    0.00000   -0.11850    6.32040    0.00000    1.41700    1.41700  # cp,cp,cp,cp
dihedral_coeff	28 ebt    0.00000   -6.89580    0.00000    0.00000   -0.46690    0.00000    1.41700    1.09820  # cp,cp,cp,hc
dihedral_coeff	29 ebt    0.00000    0.26550    0.00000    0.00000    4.89050    0.00000    1.41700    1.37680  # cp,cp,cp,oc
dihedral_coeff	30 ebt    0.00000    0.00000    0.00000    0.00000    0.00000    0.00000    1.37680    1.10100  # cp,oc,c,hc
dihedral_coeff	31 ebt    0.21300    0.31200    0.07770    0.21300    0.31200    0.07770    1.10100    1.10100  # hc,c,c,hc
dihedral_coeff	32 ebt    0.00000    0.00000    0.00000    0.00000    0.00000    0.00000    1.10100    1.51850  # hc,c,c,n4
dihedral_coeff	33 ebt    0.00000    0.00000    0.00000    0.00000    0.00000    0.00000    1.10100    1.43000  # hc,c,c,o_2
dihedral_coeff	34 ebt    0.96810    0.95510    0.04360    0.59030    0.66690    0.85840    1.10100    1.42000  # hc,c,c,oc
dihedral_coeff	35 ebt    0.96810    0.95510    0.04360    0.59030    0.66690    0.85840    1.10100    1.42000  # hc,c,c,oh
dihedral_coeff	36 ebt    0.00000    0.00000    0.00000    0.00000    0.00000    0.00000    1.10100    1.23390  # hc,c,c-,o-
dihedral_coeff	37 ebt    0.21300    0.31200    0.07770    0.21300    0.31200    0.07770    1.10100    1.10100  # hc,c,c1,hc
dihedral_coeff	38 ebt   -1.75540    1.31450    0.22630    0.24930    0.68030    0.00000    1.10100    0.96500  # hc,c,oh,ho
dihedral_coeff	39 ebt    1.21430    0.28310    0.39160   -0.22980    0.03540    0.38530    1.10100    1.20200  # hc,c1,c_1,o_1
dihedral_coeff	40 ebt    0.00000    0.00000    0.00000    0.00000    0.00000    0.00000    1.10100    1.36830  # hc,c1,c_1,o_2
dihedral_coeff	41 ebt    0.00000   -0.68900    0.00000    0.00000   -0.68900    0.00000    1.09820    1.09820  # hc,cp,cp,hc
dihedral_coeff	42 ebt    0.00000   -1.58670    0.00000    0.00000    4.26410    0.00000    1.09820    1.37680  # hc,cp,cp,oc
dihedral_coeff	43 ebt    0.00000    0.00000    0.00000    0.00000    0.00000    0.00000    1.51850    1.43000  # n4,c,c,o_2
dihedral_coeff	44 ebt    0.00000    0.00000    0.00000    0.00000    0.00000    0.00000    1.43000    1.42000  # o_2,c,c,oc
dihedral_coeff	45 ebt    0.00000    0.00000    0.00000    0.00000    0.00000    0.00000    1.43000    1.42000  # o_2,c,c,oh

# AngleTorsion Coeffs

dihedral_coeff	 1 at    0.38860   -0.31390    0.13890    0.38860   -0.31390    0.13890  112.67000  112.67000  # c,c,c,c
dihedral_coeff	 2 at   -0.24540    0.00000   -0.11360    0.31130    0.45160   -0.19880  112.67000  110.77000  # c,c,c,hc
dihedral_coeff	 3 at    0.00000    0.00000    0.00000    0.00000    0.00000    0.00000  112.67000  107.41000  # c,c,c,o_2
dihedral_coeff	 4 at   13.22200    1.32710   -0.39410    2.93330    2.25930   -0.55730  104.49000  115.06000  # c,c,c-,o-
dihedral_coeff	 5 at    0.38860   -0.31390    0.13890    0.38860   -0.31390    0.13890  112.67000  112.67000  # c,c,c1,c
dihedral_coeff	 6 at   -0.26070    0.32030   -0.22830    0.05150   -0.06740   -0.04740  112.67000  108.52950  # c,c,c1,c_1
dihedral_coeff	 7 at   -0.24540    0.00000   -0.11360    0.31130    0.45160   -0.19880  112.67000  110.77000  # c,c,c1,hc
dihedral_coeff	 8 at   -1.28770    4.80560    1.14810   -3.76820    2.74640   -1.62720  112.13000  109.77000  # c,c,n4,c
dihedral_coeff	 9 at    0.00000    0.00000    0.00000    0.00000    0.00000    0.00000  107.41000  113.28800  # c,c,o_2,c_1
dihedral_coeff	10 at    0.00000    0.00000    0.00000    0.00000    0.00000    0.00000  111.27000  102.96950  # c,c,oc,cp
dihedral_coeff	11 at   -3.59030    2.52250    0.48880    0.87260   -0.35770    0.38880  111.27000  105.80000  # c,c,oh,ho
dihedral_coeff	12 at    0.38860   -0.31390    0.13890    0.38860   -0.31390    0.13890  112.67000  112.67000  # c,c1,c,c1
dihedral_coeff	13 at   -0.24540    0.00000   -0.11360    0.31130    0.45160   -0.19880  112.67000  110.77000  # c,c1,c,hc
dihedral_coeff	14 at    0.08850   -1.37030   -0.54520    0.67500    0.59650    0.67250  108.52950  123.14510  # c,c1,c_1,o_1
dihedral_coeff	15 at    0.00000    0.00000    0.00000    0.00000    0.00000    0.00000  108.52950  100.31820  # c,c1,c_1,o_2
dihedral_coeff	16 at    1.68400    0.40870    0.42930   -0.08390    1.54770   -0.22840  109.77000  105.85000  # c,n4,c,hc
dihedral_coeff	17 at    0.00000    0.00000    0.00000    0.00000    0.00000    0.00000  113.28800  100.31820  # c,o_2,c_1,c1
dihedral_coeff	18 at    0.00000    0.00000    0.00000    0.00000    0.00000    0.00000  113.28800  120.79700  # c,o_2,c_1,o_1
dihedral_coeff	19 at    0.00000    0.00000    0.00000    0.00000    0.00000    0.00000  102.96950  123.42000  # c,oc,cp,cp
dihedral_coeff	20 at    1.65750   -0.45770    0.36100    3.93180    2.22350    0.36700  104.49000  110.77000  # c-,c,c,hc
dihedral_coeff	21 at    0.00000    0.00000    0.00000    0.00000    0.00000    0.00000  104.49000  107.41000  # c-,c,c,o_2
dihedral_coeff	22 at   -0.24540    0.00000   -0.11360    0.31130    0.45160   -0.19880  112.67000  110.77000  # c1,c,c,hc
dihedral_coeff	23 at   -0.26070    0.32030   -0.22830    0.05150   -0.06740   -0.04740  112.67000  108.52950  # c1,c,c1,c_1
dihedral_coeff	24 at   -0.24540    0.00000   -0.11360    0.31130    0.45160   -0.19880  112.67000  110.77000  # c1,c,c1,hc
dihedral_coeff	25 at   -0.74660   -0.94480   -0.63210    0.01620    1.42110   -1.40920  108.52950  110.77000  # c_1,c1,c,hc
dihedral_coeff	26 at    0.00000    0.00000    0.00000    0.00000    0.00000    0.00000  113.28800  107.68800  # c_1,o_2,c,hc
dihedral_coeff	27 at    1.97670    1.02390    0.00000    1.97670    1.02390    0.00000  118.90000  118.90000  # cp,cp,cp,cp
dihedral_coeff	28 at    0.00000    2.50140    0.00000    0.00000    2.71470    0.00000  118.90000  117.94000  # cp,cp,cp,hc
dihedral_coeff	29 at    0.00000   10.01550    0.00000    0.00000    1.74040    0.00000  118.90000  123.42000  # cp,cp,cp,oc
dihedral_coeff	30 at    0.00000    0.00000    0.00000    0.00000    0.00000    0.00000  102.96950  108.72800  # cp,oc,c,hc
dihedral_coeff	31 at   -0.80850    0.55690   -0.24660   -0.80850    0.55690   -0.24660  110.77000  110.77000  # hc,c,c,hc
dihedral_coeff	32 at   -3.41090    0.64760   -0.95840   -2.86940    1.61720   -1.46270  110.77000  112.13000  # hc,c,c,n4
dihedral_coeff	33 at    0.00000    0.00000    0.00000    0.00000    0.00000    0.00000  110.77000  107.41000  # hc,c,c,o_2
dihedral_coeff	34 at    2.36680    2.49200   -1.01220   -0.18920    0.49180    0.72730  110.77000  111.27000  # hc,c,c,oc
dihedral_coeff	35 at    2.36680    2.49200   -1.01220   -0.18920    0.49180    0.72730  110.77000  111.27000  # hc,c,c,oh
dihedral_coeff	36 at   12.07200    0.23880   -0.04260   -4.28250    1.12540   -0.14810  109.67000  115.06000  # hc,c,c-,o-
dihedral_coeff	37 at   -0.80850    0.55690   -0.24660   -0.80850    0.55690   -0.24660  110.77000  110.77000  # hc,c,c1,hc
dihedral_coeff	38 at   -3.40600    1.63960    0.07370    0.00000   -0.28100   -0.59440  108.72800  105.80000  # hc,c,oh,ho
dihedral_coeff	39 at    9.12990   -0.48470    0.35820   -1.49460    0.73080   -0.20830  107.73360  123.14510  # hc,c1,c_1,o_1
dihedral_coeff	40 at    0.00000    0.00000    0.00000    0.00000    0.00000    0.00000  107.73360  100.31820  # hc,c1,c_1,o_2
dihedral_coeff	41 at    0.00000    2.45010    0.00000    0.00000    2.45010    0.00000  117.94000  117.94000  # hc,cp,cp,hc
dihedral_coeff	42 at    0.00000    1.87290    0.00000    0.00000    2.57060    0.00000  117.94000  123.42000  # hc,cp,cp,oc
dihedral_coeff	43 at    0.00000    0.00000    0.00000    0.00000    0.00000    0.00000  112.13000  107.41000  # n4,c,c,o_2
dihedral_coeff	44 at    0.00000    0.00000    0.00000    0.00000    0.00000    0.00000  107.41000  111.27000  # o_2,c,c,oc
dihedral_coeff	45 at    0.00000    0.00000    0.00000    0.00000    0.00000    0.00000  107.41000  111.27000  # o_2,c,c,oh

# AngleAngleTorsion Coeffs

dihedral_coeff	 1 aat  -22.04500  112.67000  112.67000  # c,c,c,c
dihedral_coeff	 2 aat  -16.16400  112.67000  110.77000  # c,c,c,hc
dihedral_coeff	 3 aat    0.00000  112.67000  107.41000  # c,c,c,o_2
dihedral_coeff	 4 aat  -28.74200  104.49000  115.06000  # c,c,c-,o-
dihedral_coeff	 5 aat  -22.04500  112.67000  112.67000  # c,c,c1,c
dihedral_coeff	 6 aat   -0.38010  112.67000  108.52950  # c,c,c1,c_1
dihedral_coeff	 7 aat  -16.16400  112.67000  110.77000  # c,c,c1,hc
dihedral_coeff	 8 aat  -18.15940  112.13000  109.77000  # c,c,n4,c
dihedral_coeff	 9 aat    0.00000  107.41000  113.28800  # c,c,o_2,c_1
dihedral_coeff	10 aat    0.00000  111.27000  102.96950  # c,c,oc,cp
dihedral_coeff	11 aat  -12.10380  111.27000  105.80000  # c,c,oh,ho
dihedral_coeff	12 aat  -22.04500  112.67000  112.67000  # c,c1,c,c1
dihedral_coeff	13 aat  -16.16400  112.67000  110.77000  # c,c1,c,hc
dihedral_coeff	14 aat   -8.01900  108.52950  123.14510  # c,c1,c_1,o_1
dihedral_coeff	15 aat    0.00000  108.52950  100.31820  # c,c1,c_1,o_2
dihedral_coeff	16 aat  -14.04430  109.77000  105.85000  # c,n4,c,hc
dihedral_coeff	17 aat    0.00000  113.28800  100.31820  # c,o_2,c_1,c1
dihedral_coeff	18 aat    0.00000  113.28800  120.79700  # c,o_2,c_1,o_1
dihedral_coeff	19 aat    0.00000  102.96950  123.42000  # c,oc,cp,cp
dihedral_coeff	20 aat  -15.60700  104.49000  110.77000  # c-,c,c,hc
dihedral_coeff	21 aat    0.00000  104.49000  107.41000  # c-,c,c,o_2
dihedral_coeff	22 aat  -16.16400  112.67000  110.77000  # c1,c,c,hc
dihedral_coeff	23 aat   -0.38010  112.67000  108.52950  # c1,c,c1,c_1
dihedral_coeff	24 aat  -16.16400  112.67000  110.77000  # c1,c,c1,hc
dihedral_coeff	25 aat   -5.36240  108.52950  110.77000  # c_1,c1,c,hc
dihedral_coeff	26 aat    0.00000  113.28800  107.68800  # c_1,o_2,c,hc
dihedral_coeff	27 aat    0.00000  118.90000  118.90000  # cp,cp,cp,cp
dihedral_coeff	28 aat   -4.81410  118.90000  117.94000  # cp,cp,cp,hc
dihedral_coeff	29 aat  -21.02470  118.90000  123.42000  # cp,cp,cp,oc
dihedral_coeff	30 aat    0.00000  102.96950  108.72800  # cp,oc,c,hc
dihedral_coeff	31 aat  -12.56400  110.77000  110.77000  # hc,c,c,hc
dihedral_coeff	32 aat  -18.92630  110.77000  112.13000  # hc,c,c,n4
dihedral_coeff	33 aat    0.00000  110.77000  107.41000  # hc,c,c,o_2
dihedral_coeff	34 aat  -20.20060  110.77000  111.27000  # hc,c,c,oc
dihedral_coeff	35 aat  -20.20060  110.77000  111.27000  # hc,c,c,oh
dihedral_coeff	36 aat  -19.45700  109.67000  115.06000  # hc,c,c-,o-
dihedral_coeff	37 aat  -12.56400  110.77000  110.77000  # hc,c,c1,hc
dihedral_coeff	38 aat  -10.50930  108.72800  105.80000  # hc,c,oh,ho
dihedral_coeff	39 aat  -15.34960  107.73360  123.14510  # hc,c1,c_1,o_1
dihedral_coeff	40 aat    0.00000  107.73360  100.31820  # hc,c1,c_1,o_2
dihedral_coeff	41 aat    0.35980  117.94000  117.94000  # hc,cp,cp,hc
dihedral_coeff	42 aat    4.22960  117.94000  123.42000  # hc,cp,cp,oc
dihedral_coeff	43 aat    0.00000  112.13000  107.41000  # n4,c,c,o_2
dihedral_coeff	44 aat    0.00000  107.41000  111.27000  # o_2,c,c,oc
dihedral_coeff	45 aat    0.00000  107.41000  111.27000  # o_2,c,c,oh

# BondBond13 Coeffs

dihedral_coeff	 1 bb13    0.00000    1.53000    1.53000  # c,c,c,c
dihedral_coeff	 2 bb13    0.00000    1.53000    1.10100  # c,c,c,hc
dihedral_coeff	 3 bb13    0.00000    1.53000    1.43000  # c,c,c,o_2
dihedral_coeff	 4 bb13    0.00000    1.53000    1.23390  # c,c,c-,o-
dihedral_coeff	 5 bb13    0.00000    1.53000    1.53000  # c,c,c1,c
dihedral_coeff	 6 bb13    0.00000    1.53000    1.52020  # c,c,c1,c_1
dihedral_coeff	 7 bb13    0.00000    1.53000    1.10100  # c,c,c1,hc
dihedral_coeff	 8 bb13    0.00000    1.53000    1.51850  # c,c,n4,c
dihedral_coeff	 9 bb13    0.00000    1.53000    1.36830  # c,c,o_2,c_1
dihedral_coeff	10 bb13    0.00000    1.53000    1.37680  # c,c,oc,cp
dihedral_coeff	11 bb13    0.00000    1.53000    0.96500  # c,c,oh,ho
dihedral_coeff	12 bb13    0.00000    1.53000    1.53000  # c,c1,c,c1
dihedral_coeff	13 bb13    0.00000    1.53000    1.10100  # c,c1,c,hc
dihedral_coeff	14 bb13    0.00000    1.53000    1.20200  # c,c1,c_1,o_1
dihedral_coeff	15 bb13    0.00000    1.53000    1.36830  # c,c1,c_1,o_2
dihedral_coeff	16 bb13    0.00000    1.51850    1.10100  # c,n4,c,hc
dihedral_coeff	17 bb13    0.00000    1.43000    1.52020  # c,o_2,c_1,c1
dihedral_coeff	18 bb13    0.00000    1.43000    1.20200  # c,o_2,c_1,o_1
dihedral_coeff	19 bb13    0.00000    1.42000    1.41700  # c,oc,cp,cp
dihedral_coeff	20 bb13    0.00000    1.54830    1.10100  # c-,c,c,hc
dihedral_coeff	21 bb13    0.00000    1.54830    1.43000  # c-,c,c,o_2
dihedral_coeff	22 bb13    0.00000    1.53000    1.10100  # c1,c,c,hc
dihedral_coeff	23 bb13    0.00000    1.53000    1.52020  # c1,c,c1,c_1
dihedral_coeff	24 bb13    0.00000    1.53000    1.10100  # c1,c,c1,hc
dihedral_coeff	25 bb13    0.00000    1.52020    1.10100  # c_1,c1,c,hc
dihedral_coeff	26 bb13    0.00000    1.36830    1.10100  # c_1,o_2,c,hc
dihedral_coeff	27 bb13   53.00000    1.41700    1.41700  # cp,cp,cp,cp
dihedral_coeff	28 bb13   -6.27410    1.41700    1.09820  # cp,cp,cp,hc
dihedral_coeff	29 bb13   -2.24360    1.41700    1.37680  # cp,cp,cp,oc
dihedral_coeff	30 bb13    0.00000    1.37680    1.10100  # cp,oc,c,hc
dihedral_coeff	31 bb13    0.00000    1.10100    1.10100  # hc,c,c,hc
dihedral_coeff	32 bb13    0.00000    1.10100    1.51850  # hc,c,c,n4
dihedral_coeff	33 bb13    0.00000    1.10100    1.43000  # hc,c,c,o_2
dihedral_coeff	34 bb13    0.00000    1.10100    1.42000  # hc,c,c,oc
dihedral_coeff	35 bb13    0.00000    1.10100    1.42000  # hc,c,c,oh
dihedral_coeff	36 bb13    0.00000    1.10100    1.23390  # hc,c,c-,o-
dihedral_coeff	37 bb13    0.00000    1.10100    1.10100  # hc,c,c1,hc
dihedral_coeff	38 bb13    0.00000    1.10100    0.96500  # hc,c,oh,ho
dihedral_coeff	39 bb13    0.00000    1.10100    1.20200  # hc,c1,c_1,o_1
dihedral_coeff	40 bb13    0.00000    1.10100    1.36830  # hc,c1,c_1,o_2
dihedral_coeff	41 bb13   -1.70770    1.09820    1.09820  # hc,cp,cp,hc
dihedral_coeff	42 bb13    2.05170    1.09820    1.37680  # hc,cp,cp,oc
dihedral_coeff	43 bb13    0.00000    1.51850    1.43000  # n4,c,c,o_2
dihedral_coeff	44 bb13    0.00000    1.43000    1.42000  # o_2,c,c,oc
dihedral_coeff	45 bb13    0.00000    1.43000    1.42000  # o_2,c,c,oh

# Improper Coeffs

improper_coeff	 1    0.00000    0.00000  # c,c,c,hc
improper_coeff	 2    0.00000    0.00000  # c,c,c-,hc
improper_coeff	 3    0.00000    0.00000  # c,c,c1,hc
improper_coeff	 4    0.00000    0.00000  # c,c,hc,hc
improper_coeff	 5    0.00000    0.00000  # c,c,hc,o_2
improper_coeff	 6    0.00000    0.00000  # c,c,n4,hc
improper_coeff	 7    0.00000    0.00000  # c,c,oc,hc
improper_coeff	 8    0.00000    0.00000  # c,c,oh,hc
improper_coeff	 9    0.00000    0.00000  # c,c-,hc,hc
improper_coeff	10    0.00000    0.00000  # c,c1,c1,hc
improper_coeff	11    0.00000    0.00000  # c,c1,hc,hc
improper_coeff	12    0.00000    0.00000  # c,hc,hc,hc
improper_coeff	13    0.00000    0.00000  # c,hc,hc,n4
improper_coeff	14    0.00000    0.00000  # c,hc,hc,o_2
improper_coeff	15    0.00000    0.00000  # c,hc,hc,oc
improper_coeff	16    0.00000    0.00000  # c,hc,hc,oh
improper_coeff	17   44.15000    0.00000  # c-,c,o-,o-
improper_coeff	18    0.00000    0.00000  # c1,c,c,c_1
improper_coeff	19    0.00000    0.00000  # c1,c,c,hc
improper_coeff	20    0.00000    0.00000  # c1,c,c_1,hc
improper_coeff	21   46.92640    0.00000  # c_1,c1,o_2,o_1
improper_coeff	22    4.89120    0.00000  # cp,cp,cp,hc
improper_coeff	23   13.04210    0.00000  # cp,cp,cp,oc
improper_coeff	24    0.00000    0.00000  # n4,c,c,c

# AngleAngle Coeffs

improper_coeff	 1 aa   -1.31990   -1.31990    0.11840  112.67000  110.77000  110.77000  # c,c,c,hc
improper_coeff	 2 aa   -0.04140   -1.00330    2.45940  104.49000  110.77000  109.67000  # c,c,c-,hc
improper_coeff	 3 aa   -1.31990   -1.31990    0.11840  112.67000  110.77000  110.77000  # c,c,c1,hc
improper_coeff	 4 aa    0.27380   -0.48250    0.27380  110.77000  110.77000  107.66000  # c,c,hc,hc
improper_coeff	 5 aa    0.00000    0.00000    0.00000  110.77000  107.41000  107.68800  # c,c,hc,o_2
improper_coeff	 6 aa    7.02920    6.02740    4.24400  112.13000  110.77000  105.85000  # c,c,n4,hc
improper_coeff	 7 aa    0.16890    2.59260    3.91770  111.27000  110.77000  108.72800  # c,c,oc,hc
improper_coeff	 8 aa    0.16890    2.59260    3.91770  111.27000  110.77000  108.72800  # c,c,oh,hc
improper_coeff	 9 aa    2.72540   -1.80860    2.72540  109.67000  109.67000  107.66000  # c,c-,hc,hc
improper_coeff	10 aa   -1.31990   -1.31990    0.11840  112.67000  110.77000  110.77000  # c,c1,c1,hc
improper_coeff	11 aa    0.27380   -0.48250    0.27380  110.77000  110.77000  107.66000  # c,c1,hc,hc
improper_coeff	12 aa   -0.31570   -0.31570   -0.31570  107.66000  107.66000  107.66000  # c,hc,hc,hc
improper_coeff	13 aa    3.54750    3.54750    7.33650  107.66000  105.85000  105.85000  # c,hc,hc,n4
improper_coeff	14 aa    0.00000    0.00000    0.00000  107.66000  107.68800  107.68800  # c,hc,hc,o_2
improper_coeff	15 aa    2.42590    2.42590    2.12830  107.66000  108.72800  108.72800  # c,hc,hc,oc
improper_coeff	16 aa    2.42590    2.42590    2.12830  107.66000  108.72800  108.72800  # c,hc,hc,oh
improper_coeff	17 aa    0.00000    0.00000    0.00000  115.06000  115.06000  130.01000  # c-,c,o-,o-
improper_coeff	18 aa    0.00000    0.00000    0.00000  112.67000  108.52950  108.52950  # c1,c,c,c_1
improper_coeff	19 aa   -1.31990   -1.31990    0.11840  112.67000  110.77000  110.77000  # c1,c,c,hc
improper_coeff	20 aa    2.04030   -1.82020    1.08270  108.52950  110.77000  107.73360  # c1,c,c_1,hc
improper_coeff	21 aa    0.00000    0.00000    0.00000  100.31820  123.14510  120.79700  # c_1,c1,o_2,o_1
improper_coeff	22 aa    0.00000    0.00000    0.00000  118.90000  117.94000  117.94000  # cp,cp,cp,hc
improper_coeff	23 aa    0.00000    0.00000    0.00000  118.90000  123.42000  123.42000  # cp,cp,cp,oc
improper_coeff	24 aa   -1.51550   -1.51550   -1.51550  109.77000  109.77000  109.77000  # n4,c,c,c

pair_modify     tail no
variable        ZHALF   equal 40.0     # половина целевой толщины плёнки, A
variable        ZBOX    equal 160.0    # полувысота ячейки (вакуум), A
variable        NZBOX   equal "-v_ZBOX"
variable        NZHALF  equal "-v_ZHALF"
variable        SOFTCUT equal 3.0
variable        SOFTA   equal 60.0
variable        NPUSH   equal 150000
variable        NHOLD   equal 50000

neighbor        2.0 bin
neigh_modify    delay 0 every 1 check yes

pair_style      soft $(v_SOFTCUT)
pair_style      soft 3
comm_modify     cutoff 8.0
pair_coeff      * * $(v_SOFTA)
pair_coeff      * * 60
dump            TRJ all custom 10000 dump.soft.lammpstrj.gz id mol type q x y z
min_modify dmax 0.1
min_style cg
minimize 1.0e-4 1.0e-5 5000 50000
Generated 0 of 78 mixed pair_coeff terms from geometric mixing rule
Neighbor list info ...
  update: every = 1 steps, delay = 0 steps, check = yes
  max neighbors/atom: 2000, page size: 100000
  master list distance cutoff = 5
  ghost atom cutoff = 8
  binsize = 5, bins = 17 17 64
  1 neighbor lists, perpetual/occasional/extra = 1 0 0
  (1) pair soft/kk, perpetual
      attributes: full, newton off, kokkos_device
      pair build: full/bin/kk/device
      stencil: full/bin/3d
      bin: kk/device
WARNING: Fix MINIMIZE/kk not compatible with sending data in Kokkos communication (src/KOKKOS/comm_kokkos.cpp:799)
WARNING: Fix with atom-based arrays not compatible with sending data in Kokkos communication, switching to classic exchange/border communication (src/KOKKOS/comm_kokkos.cpp:812)
WARNING: Fix MINIMIZE/kk not compatible with Kokkos sorting on device (src/KOKKOS/atom_kokkos.cpp:213)
WARNING: Fix with atom-based arrays not compatible with Kokkos sorting on device, switching to classic host sorting (src/KOKKOS/atom_kokkos.cpp:219)
Per MPI rank memory allocation (min/avg/max) = 103.4 | 103.4 | 103.4 Mbytes
   Step          Temp          E_pair         E_mol          TotEng         Press     
         0   0              969611.51      83614.2        1053225.7      80806.978    
       524   0              130410.56      129120.03      259530.6       11699.165    
Loop time of 7.8464 on 1 procs for 524 steps with 38466 atoms

89.6% CPU use with 1 MPI tasks x 1 OpenMP threads

Minimization stats:
  Stopping criterion = energy tolerance
  Energy initial, next-to-last, final = 
       1053225.7117597    259547.56498192    259530.59634852
  Force two-norm initial, final = 15219.341 1270.7407
  Force max component initial, final = 1403.7614 447.43512
  Final line search alpha, max atom move = 6.2226618e-05 0.027842374
  Iterations, force evaluations = 524 546

MPI task timing breakdown:
Section |  min time  |  avg time  |  max time  |%varavg| %total
---------------------------------------------------------------
Pair    | 1.5945     | 1.5945     | 1.5945     |   0.0 | 20.32
Bond    | 3.5993     | 3.5993     | 3.5993     |   0.0 | 45.87
Neigh   | 0.45816    | 0.45816    | 0.45816    |   0.0 |  5.84
Comm    | 0.11174    | 0.11174    | 0.11174    |   0.0 |  1.42
Output  | 0          | 0          | 0          |   0.0 |  0.00
Modify  | 0          | 0          | 0          |   0.0 |  0.00
Other   |            | 2.083      |            |       | 26.54

Nlocal:          38466 ave       38466 max       38466 min
Histogram: 1 0 0 0 0 0 0 0 0 0
Nghost:          17291 ave       17291 max       17291 min
Histogram: 1 0 0 0 0 0 0 0 0 0
Neighs:              0 ave           0 max           0 min
Histogram: 1 0 0 0 0 0 0 0 0 0
FullNghs:  1.30216e+06 ave 1.30216e+06 max 1.30216e+06 min
Histogram: 1 0 0 0 0 0 0 0 0 0

Total # of neighbors = 1302160
Ave neighs/atom = 33.852233
Ave special neighs/atom = 5.766963
Neighbor list builds = 15
Dangerous builds = 0
min_style cg
minimize 1.0e-8 1.0e-10 20000 200000
Generated 0 of 78 mixed pair_coeff terms from geometric mixing rule
WARNING: Fix MINIMIZE/kk not compatible with Kokkos sorting on device (src/KOKKOS/atom_kokkos.cpp:213)
WARNING: Fix with atom-based arrays not compatible with Kokkos sorting on device, switching to classic host sorting (src/KOKKOS/atom_kokkos.cpp:219)
Per MPI rank memory allocation (min/avg/max) = 108.3 | 108.3 | 108.3 Mbytes
   Step          Temp          E_pair         E_mol          TotEng         Press     
       524   0              130410.56      129120.03      259530.6       11699.165    
       870   0              101906.76      119546.72      221453.48      6954.5649    
Loop time of 9.16332 on 1 procs for 346 steps with 38466 atoms

86.6% CPU use with 1 MPI tasks x 1 OpenMP threads

Minimization stats:
  Stopping criterion = energy tolerance
  Energy initial, next-to-last, final = 
       259530.59634852   221453.481459282   221453.481278751
  Force two-norm initial, final = 1270.7407 1076.8913
  Force max component initial, final = 447.43512 733.94846
  Final line search alpha, max atom move = 1.3214206e-07 9.6985459e-05
  Iterations, force evaluations = 346 732

MPI task timing breakdown:
Section |  min time  |  avg time  |  max time  |%varavg| %total
---------------------------------------------------------------
Pair    | 1.8697     | 1.8697     | 1.8697     |   0.0 | 20.40
Bond    | 5.0367     | 5.0367     | 5.0367     |   0.0 | 54.97
Neigh   | 0.29178    | 0.29178    | 0.29178    |   0.0 |  3.18
Comm    | 0.075697   | 0.075697   | 0.075697   |   0.0 |  0.83
Output  | 0          | 0          | 0          |   0.0 |  0.00
Modify  | 0          | 0          | 0          |   0.0 |  0.00
Other   |            | 1.889      |            |       | 20.62

Nlocal:          38466 ave       38466 max       38466 min
Histogram: 1 0 0 0 0 0 0 0 0 0
Nghost:          17287 ave       17287 max       17287 min
Histogram: 1 0 0 0 0 0 0 0 0 0
Neighs:              0 ave           0 max           0 min
Histogram: 1 0 0 0 0 0 0 0 0 0
FullNghs:  1.22378e+06 ave 1.22378e+06 max 1.22378e+06 min
Histogram: 1 0 0 0 0 0 0 0 0 0

Total # of neighbors = 1223776
Ave neighs/atom = 31.814486
Ave special neighs/atom = 5.766963
Neighbor list builds = 9
Dangerous builds = 0

timestep        0.1
fix             1 all nve/limit 0.05
fix             2 all viscous 50.0
fix             3 all dt/reset 1 NULL 0.001 0.1
thermo          1000
run             10000
Generated 0 of 78 mixed pair_coeff terms from geometric mixing rule
Per MPI rank memory allocation (min/avg/max) = 104.5 | 104.5 | 104.5 Mbytes
   Step          Temp          E_pair         E_mol          TotEng         Press     
       870   0              101906.76      119546.72      221453.48      6954.5649    
      1000   0.00091695665  101906.71      119546.66      221453.48      6954.5564    
      2000   0.05175908     101903.47      119544         221453.41      6953.9132    
      3000   0.15479608     101895.62      119539.66      221453.03      6952.3978    
      4000   0.26876501     101884.23      119537.18      221452.23      6950.2687    
      5000   0.37656196     101870.48      119537.35      221451         6947.7843    
      6000   0.49047533     101855.57      119537.55      221449.36      6945.1682    
      7000   0.62922736     101840.68      119534.47      221447.3       6942.7287    
      8000   0.79503147     101826.76      119526.92      221444.83      6940.7414    
      9000   0.96803547     101814.18      119516.84      221442.01      6939.3587    
     10000   1.1331591      101802.14      119506.83      221438.9       6938.435     
     10870   1.292851       101791.2       119496.53      221435.96      6937.7401    
Loop time of 101.194 on 1 procs for 10000 steps with 38466 atoms

Performance: 0.009 ns/day, 2810.949 hours/ns, 98.820 timesteps/s, 3.801 Matom-step/s
88.4% CPU use with 1 MPI tasks x 1 OpenMP threads

MPI task timing breakdown:
Section |  min time  |  avg time  |  max time  |%varavg| %total
---------------------------------------------------------------
Pair    | 0.48464    | 0.48464    | 0.48464    |   0.0 |  0.48
Bond    | 75.578     | 75.578     | 75.578     |   0.0 | 74.69
Neigh   | 0          | 0          | 0          |   0.0 |  0.00
Comm    | 0.17825    | 0.17825    | 0.17825    |   0.0 |  0.18
Output  | 0.45051    | 0.45051    | 0.45051    |   0.0 |  0.45
Modify  | 20.219     | 20.219     | 20.219     |   0.0 | 19.98
Other   |            | 4.284      |            |       |  4.23

Nlocal:          38466 ave       38466 max       38466 min
Histogram: 1 0 0 0 0 0 0 0 0 0
Nghost:          17289 ave       17289 max       17289 min
Histogram: 1 0 0 0 0 0 0 0 0 0
Neighs:              0 ave           0 max           0 min
Histogram: 1 0 0 0 0 0 0 0 0 0
FullNghs:  1.21809e+06 ave 1.21809e+06 max 1.21809e+06 min
Histogram: 1 0 0 0 0 0 0 0 0 0

Total # of neighbors = 1218088
Ave neighs/atom = 31.666615
Ave special neighs/atom = 5.766963
Neighbor list builds = 0
Dangerous builds = 0
# fix_modify      1 energy yes
unfix           1
unfix           2
unfix           3

velocity        all zero linear
velocity        all zero angular

compute         ZMIN all reduce min z
compute         ZMAX all reduce max z
thermo_style    custom step temp press lz pe atoms c_ZMIN c_ZMAX
run             0 post no
WARNING: No fixes with time integration, atoms won't move
For more information see https://docs.lammps.org/err0028 (src/verlet.cpp:60)
Generated 0 of 78 mixed pair_coeff terms from geometric mixing rule
Per MPI rank memory allocation (min/avg/max) = 104.5 | 104.5 | 104.5 Mbytes
   Step          Temp          Press            Lz           PotEng        Atoms        c_ZMIN         c_ZMAX    
     10870   1.291086       6937.7358      320            221287.73          38466  -19.027141      108.09115    
Loop time of 0.00190552 on 1 procs for 0 steps with 38466 atoms

variable        DZSHIFT equal "-(c_ZMIN+c_ZMAX)/2.0"
displace_atoms  all move 0.0 0.0 $(v_DZSHIFT) units box
displace_atoms  all move 0.0 0.0 -44.532003236676700908 units box
Displacing atoms ...

change_box      all boundary p p f
Changing box ...
run             0 post no
WARNING: No fixes with time integration, atoms won't move
For more information see https://docs.lammps.org/err0028 (src/verlet.cpp:60)
Generated 0 of 78 mixed pair_coeff terms from geometric mixing rule
Per MPI rank memory allocation (min/avg/max) = 104.4 | 104.4 | 104.4 Mbytes
   Step          Temp          Press            Lz           PotEng        Atoms        c_ZMIN         c_ZMAX    
     10870   1.291086       6937.7358      320            221287.73          38466  -63.559144      63.559144    
Loop time of 0.00128439 on 1 procs for 0 steps with 38466 atoms


variable        ZB0 equal "c_ZMIN-5.0"
variable        ZT0 equal "c_ZMAX+5.0"
variable        ZB0F internal $(v_ZB0)
variable        ZB0F internal -68.559144028166997487
variable        ZT0F internal $(v_ZT0)
variable        ZT0F internal 68.559144028166997487
variable        z_bot equal "ramp(v_ZB0F,v_NZHALF)"
variable        z_top equal "ramp(v_ZT0F,v_ZHALF)"

fix             wall_b all wall/reflect zlo v_z_bot units box
fix             wall_t all wall/reflect zhi v_z_top units box

fix             1 all langevin 300.0 300.0 100.0 48279
fix             2 all nve

variable        film_dens equal "mass(all)/(0.6022141*lx*ly*(2.0*v_ZHALF))"

thermo          2000
thermo_style    custom step temp press lz pe atoms c_ZMIN c_ZMAX v_film_dens
timestep	0.5
run             ${NPUSH}
run             150000
Generated 0 of 78 mixed pair_coeff terms from geometric mixing rule
Per MPI rank memory allocation (min/avg/max) = 104.4 | 104.4 | 104.4 Mbytes
   Step          Temp          Press            Lz           PotEng        Atoms        c_ZMIN         c_ZMAX      v_film_dens  
     10870   1.291086       6937.7358      320            221287.73          38466  -63.559144      63.559144      0.77546351   
     12000   317.32066      3772.3712      320            222725.83          38466  -63.699939      65.787649      0.77546351   
     14000   304.95742      2198.8684      320            205766.36          38466  -63.794995      66.498091      0.77546351   
     16000   301.90217      1718.2707      320            198829.59          38466  -64.652847      66.489746      0.77546351   
     18000   303.47599      1460.255       320            195464.21          38466  -65.639384      67.094206      0.77546351   
     20000   300.33922      1403.8381      320            193180.83          38466  -66.801143      66.469091      0.77546351   
     22000   301.92391      1102.8147      320            191743.76          38466  -66.224822      66.301864      0.77546351   
     24000   299.87402      1034.1117      320            190468.03          38466  -66.053735      65.908886      0.77546351   
     26000   300.50483      992.80948      320            189214.7           38466  -65.674629      65.508603      0.77546351   
     28000   299.27211      991.97349      320            188671.52          38466  -65.275313      65.277642      0.77546351   
     30000   298.59307      793.07925      320            187721.37          38466  -64.908796      64.890371      0.77546351   
     32000   300.15409      882.05428      320            187391.69          38466  -64.519797      64.427008      0.77546351   
     34000   299.31226      800.33333      320            187008.92          38466  -64.128036      64.139312      0.77546351   
     36000   298.19045      798.38508      320            186432.12          38466  -63.761935      63.772112      0.77546351   
     38000   298.72218      657.74336      320            186211.26          38466  -63.385966      63.367663      0.77546351   
     40000   299.99693      784.01686      320            185625.6           38466  -63.00309       62.984766      0.77546351   
     42000   300.35043      798.37723      320            185759.07          38466  -62.629861      62.622695      0.77546351   
     44000   300.76996      651.79529      320            185456.09          38466  -62.250449      62.242973      0.77546351   
     46000   301.27938      842.18236      320            184932.61          38466  -61.866333      61.87048       0.77546351   
     48000   302.15558      704.27336      320            184647.52          38466  -61.485132      61.47932       0.77546351   
     50000   299.18046      623.5723       320            184210.85          38466  -61.108053      61.107189      0.77546351   
     52000   299.79905      810.66098      320            184165.58          38466  -60.728067      60.719933      0.77546351   
     54000   300.77666      790.78119      320            183960.76          38466  -60.346147      60.343543      0.77546351   
     56000   301.95425      759.44004      320            183644.32          38466  -59.966643      59.909332      0.77546351   
     58000   299.33083      687.31048      320            183611.85          38466  -59.584877      59.546086      0.77546351   
     60000   299.70036      691.29637      320            183243.42          38466  -59.203736      59.18955       0.77546351   
     62000   298.87765      747.41068      320            183228.78          38466  -58.822593      58.824175      0.77546351   
     64000   297.83495      785.5029       320            183127.36          38466  -58.442084      58.432398      0.77546351   
     66000   300.29237      722.08806      320            182968.98          38466  -58.061563      58.049303      0.77546351   
     68000   299.75619      758.03287      320            182783.42          38466  -57.681487      57.671819      0.77546351   
     70000   299.65999      687.11375      320            182803.77          38466  -57.300596      57.2875        0.77546351   
     72000   299.80524      671.39848      320            182716.94          38466  -56.920312      56.906832      0.77546351   
     74000   301.43627      779.29334      320            182835.82          38466  -56.539424      56.522674      0.77546351   
     76000   297.80919      795.46492      320            182497.13          38466  -56.154         56.145699      0.77546351   
     78000   302.00261      778.65811      320            182493.26          38466  -55.776546      55.770944      0.77546351   
     80000   300.43245      663.54087      320            182639.86          38466  -55.396809      55.39431       0.77546351   
     82000   303.10677      689.74204      320            182683.91          38466  -55.015751      55.014017      0.77546351   
     84000   298.01807      879.06929      320            182140.77          38466  -54.63558       54.635431      0.77546351   
     86000   299.85864      763.50359      320            182630.17          38466  -54.254669      54.253535      0.77546351   
     88000   300.96586      764.05495      320            182279.5           38466  -53.87396       53.871222      0.77546351   
     90000   299.97984      727.16388      320            182234.42          38466  -53.491766      53.492146      0.77546351   
     92000   300.34794      901.38433      320            182160.3           38466  -53.112177      53.108215      0.77546351   
     94000   299.4169       935.0192       320            182421.83          38466  -52.73148       52.728402      0.77546351   
     96000   300.35177      1030.1617      320            182447.19          38466  -52.350621      52.343473      0.77546351   
     98000   299.29539      886.25525      320            182437.75          38466  -51.970026      51.969956      0.77546351   
    100000   299.85957      982.10493      320            182228.26          38466  -51.589157      51.587468      0.77546351   
    102000   299.59573      1045.5388      320            182321.65          38466  -51.208186      51.206191      0.77546351   
    104000   297.86656      913.87681      320            182201.69          38466  -50.827434      50.827267      0.77546351   
    106000   302.74096      1007.9052      320            182392.04          38466  -50.446858      50.446534      0.77546351   
    108000   301.35236      954.68477      320            182292.89          38466  -50.064891      50.064236      0.77546351   
    110000   299.45938      1092.8612      320            182446.37          38466  -49.684373      49.682008      0.77546351   
    112000   297.8876       1077.7987      320            182538.75          38466  -49.304528      49.304187      0.77546351   
    114000   301.0825       1190.8515      320            182598.53          38466  -48.923345      48.922538      0.77546351   
    116000   299.66001      1326.9794      320            182794.7           38466  -48.541811      48.541876      0.77546351   
    118000   298.71951      1224.5236      320            182416.76          38466  -48.161792      48.161255      0.77546351   
    120000   299.99111      1349.7222      320            182960.36          38466  -47.781064      47.780988      0.77546351   
    122000   300.47167      1276.5187      320            182916.91          38466  -47.400251      47.399571      0.77546351   
    124000   301.05271      1251.1801      320            182940.92          38466  -47.019369      47.013973      0.77546351   
    126000   298.51702      1393.0211      320            182805.08          38466  -46.638537      46.636737      0.77546351   
    128000   298.18143      1447.6314      320            183413.7           38466  -46.258038      46.257904      0.77546351   
    130000   299.86164      1549.9906      320            183644.32          38466  -45.877341      45.877067      0.77546351   
    132000   300.76506      1620.9177      320            183634.46          38466  -45.496599      45.494858      0.77546351   
    134000   299.84328      1593.9832      320            184024.46          38466  -45.115818      45.115499      0.77546351   
    136000   300.35588      1781.958       320            183986.55          38466  -44.735055      44.733986      0.77546351   
    138000   299.17961      1821.1043      320            184114.96          38466  -44.354135      44.35425       0.77546351   
    140000   300.40447      1790.2831      320            184453.09          38466  -43.973295      43.972792      0.77546351   
    142000   301.1341       1888.2103      320            184610.13          38466  -43.592653      43.592319      0.77546351   
    144000   301.39637      2006.6427      320            185150.06          38466  -43.211855      43.211783      0.77546351   
    146000   299.00803      2141.9552      320            185149.38          38466  -42.830964      42.830983      0.77546351   
    148000   298.97387      2217.7378      320            185449.55          38466  -42.450275      42.450288      0.77546351   
    150000   300.55755      2198.1772      320            186169.08          38466  -42.069194      42.069556      0.77546351   
    152000   301.27344      2218.8413      320            186133.18          38466  -41.688765      41.688569      0.77546351   
    154000   299.13313      2495.651       320            186429.05          38466  -41.307022      41.307878      0.77546351   
    156000   298.22813      2624.3889      320            186973.55          38466  -40.927064      40.927216      0.77546351   
    158000   298.74701      2856.708       320            187533.66          38466  -40.546256      40.546077      0.77546351   
    160000   302.24156      2996.3998      320            187954.62          38466  -40.165567      40.165242      0.77546351   
    160870   302.30292      3048.5329      320            188216.46          38466  -39.999981      39.999842      0.77546351   
Loop time of 2795.44 on 1 procs for 150000 steps with 38466 atoms

Performance: 2.318 ns/day, 10.353 hours/ns, 53.659 timesteps/s, 2.064 Matom-step/s
91.1% CPU use with 1 MPI tasks x 1 OpenMP threads

MPI task timing breakdown:
Section |  min time  |  avg time  |  max time  |%varavg| %total
---------------------------------------------------------------
Pair    | 495.76     | 495.76     | 495.76     |   0.0 | 17.73
Bond    | 1487.7     | 1487.7     | 1487.7     |   0.0 | 53.22
Neigh   | 99.881     | 99.881     | 99.881     |   0.0 |  3.57
Comm    | 35.155     | 35.155     | 35.155     |   0.0 |  1.26
Output  | 6.8845     | 6.8845     | 6.8845     |   0.0 |  0.25
Modify  | 406        | 406        | 406        |   0.0 | 14.52
Other   |            | 264.1      |            |       |  9.45

Nlocal:          38466 ave       38466 max       38466 min
Histogram: 1 0 0 0 0 0 0 0 0 0
Nghost:          16725 ave       16725 max       16725 min
Histogram: 1 0 0 0 0 0 0 0 0 0
Neighs:              0 ave           0 max           0 min
Histogram: 1 0 0 0 0 0 0 0 0 0
FullNghs:  1.11499e+06 ave 1.11499e+06 max 1.11499e+06 min
Histogram: 1 0 0 0 0 0 0 0 0 0

Total # of neighbors = 1114988
Ave neighs/atom = 28.986326
Ave special neighs/atom = 5.766963
Neighbor list builds = 2592
Dangerous builds = 0

unfix           wall_b
unfix           wall_t
fix             final_wall_b all wall/reflect zlo v_NZHALF units box
fix             final_wall_t all wall/reflect zhi v_ZHALF  units box

velocity        all scale 300.0
run             ${NHOLD}
run             50000
Generated 0 of 78 mixed pair_coeff terms from geometric mixing rule
Per MPI rank memory allocation (min/avg/max) = 104.4 | 104.4 | 104.4 Mbytes
   Step          Temp          Press            Lz           PotEng        Atoms        c_ZMIN         c_ZMAX      v_film_dens  
    160870   300            3042.8874      320            188216.46          38466  -39.999981      39.999842      0.77546351   
    162000   299.96584      2925.0036      320            187582.91          38466  -39.999846      39.999709      0.77546351   
    164000   299.82182      2878.6291      320            188243.59          38466  -39.999991      39.999843      0.77546351   
    166000   299.80486      2847.2709      320            187702.71          38466  -39.999327      39.999895      0.77546351   
    168000   301.35945      2739.6647      320            187624.32          38466  -39.999868      39.999759      0.77546351   
    170000   299.14552      2835.7141      320            187158.88          38466  -39.999419      39.999026      0.77546351   
    172000   300.51932      2722.6093      320            187306.12          38466  -39.999855      39.998609      0.77546351   
    174000   296.00181      2651.2407      320            186978.08          38466  -39.999593      39.999545      0.77546351   
    176000   301.53945      2644.3673      320            187110.89          38466  -39.999599      39.999695      0.77546351   
    178000   300.20117      2758.1127      320            186710.29          38466  -39.99935       39.999758      0.77546351   
    180000   299.15107      2564.2639      320            186829.59          38466  -39.998333      39.999515      0.77546351   
    182000   299.37719      2712.4908      320            186852.76          38466  -39.998992      39.999491      0.77546351   
    184000   300.81782      2603.746       320            186922.43          38466  -39.999876      39.999773      0.77546351   
    186000   300.97235      2526.8412      320            186758.4           38466  -39.999549      39.999202      0.77546351   
    188000   301.42813      2482.6019      320            186772.82          38466  -39.999765      39.999718      0.77546351   
    190000   299.92686      2540.3648      320            186440.61          38466  -39.999768      39.998415      0.77546351   
    192000   302.16561      2554.7284      320            186460.63          38466  -39.999312      39.999166      0.77546351   
    194000   302.0702       2489.3497      320            186910.46          38466  -39.999916      39.99935       0.77546351   
    196000   298.196        2495.7732      320            186625.92          38466  -39.999683      39.999742      0.77546351   
    198000   298.31539      2525.6534      320            186514.28          38466  -39.999805      39.999497      0.77546351   
    200000   302.28235      2572.7397      320            186334             38466  -39.999649      39.999432      0.77546351   
    202000   300.02135      2472.7502      320            186169.14          38466  -39.999959      39.999994      0.77546351   
    204000   299.32035      2500.7256      320            186179.17          38466  -39.999868      39.99939       0.77546351   
    206000   297.69842      2411.575       320            186340.42          38466  -39.999893      39.999739      0.77546351   
    208000   300.39499      2461.3332      320            186108.4           38466  -39.999726      39.998824      0.77546351   
    210000   298.01969      2498.328       320            186168.01          38466  -39.999819      39.999279      0.77546351   
    210870   300.03116      2582.9109      320            186056.87          38466  -39.999761      39.999664      0.77546351   
Loop time of 996.634 on 1 procs for 50000 steps with 38466 atoms

Performance: 2.167 ns/day, 11.074 hours/ns, 50.169 timesteps/s, 1.930 Matom-step/s
90.0% CPU use with 1 MPI tasks x 1 OpenMP threads

MPI task timing breakdown:
Section |  min time  |  avg time  |  max time  |%varavg| %total
---------------------------------------------------------------
Pair    | 179.1      | 179.1      | 179.1      |   0.0 | 17.97
Bond    | 526.26     | 526.26     | 526.26     |   0.0 | 52.80
Neigh   | 32.091     | 32.091     | 32.091     |   0.0 |  3.22
Comm    | 12.088     | 12.088     | 12.088     |   0.0 |  1.21
Output  | 2.3553     | 2.3553     | 2.3553     |   0.0 |  0.24
Modify  | 148.74     | 148.74     | 148.74     |   0.0 | 14.92
Other   |            | 96.01      |            |       |  9.63

Nlocal:          38466 ave       38466 max       38466 min
Histogram: 1 0 0 0 0 0 0 0 0 0
Nghost:          16630 ave       16630 max       16630 min
Histogram: 1 0 0 0 0 0 0 0 0 0
Neighs:              0 ave           0 max           0 min
Histogram: 1 0 0 0 0 0 0 0 0 0
FullNghs:  1.10932e+06 ave 1.10932e+06 max 1.10932e+06 min
Histogram: 1 0 0 0 0 0 0 0 0 0

Total # of neighbors = 1109322
Ave neighs/atom = 28.839027
Ave special neighs/atom = 5.766963
Neighbor list builds = 795
Dangerous builds = 0
timestep	0.5
include         setup.params
# LAMMPS parameters created by EMC v9.4.4, build Jun 30 2026 09:51:48

# Variables

variable	seed		index	666777
variable	ntotal		index	38466
variable	fshape		index	1
variable	output		index	setup
variable	field		index	cff/pcff/pcff
variable	location1	index	~/Apps/EMC/field/
variable	nav		index	0.6022141179
variable	temperature	index	300
variable	radius		index	3.5
variable	nrelax		index	1000
variable	weight_nonbond	index	0.0001
variable	weight_bond	index	0.0001
variable	weight_focus	index	1
variable	cutoff		index	12
variable	charge_cutoff	index	12
variable	kappa		index	1
variable	density1	index	1
variable	lprevious	index	0
variable	lphase		index	80.6296
variable	f_Gmax		index	18
variable	chem_hea	index	*CC(*)C(=O)OCCO
variable	chem_ba		index	*CC(*)C(=O)OCCCC
variable	chem_cbea	index	*CC(*)C(=O)OCCC(=O)[O-]
variable	chem_atac	index	*CC(*)C(=O)OCC[N+](C)(C)C
variable	chem_pea	index	*CC(*)C(=O)OCCOc1ccccc1
variable	chem_t		index	*C
variable	lg_hea		index	16
variable	lg_ba		index	21
variable	lg_cbea		index	17
variable	lg_atac		index	27
variable	lg_pea		index	26
variable	lg_t		index	4
variable	norm_Gmax	index	1
variable	l_Gmax		index	2137
variable	mg_hea		index	116.11771
variable	mg_ba		index	128.17249
variable	mg_cbea		index	143.12029
variable	mg_atac		index	158.22222
variable	mg_pea		index	192.21649
variable	mg_t		index	15.03506
variable	m_Gmax		index	13867.24439
variable	n_Gmax		index	18
variable	mtotal		index	249610.39902
variable	nphase1		index	38466
variable	mphase1		index	249610.39902
variable	vphase1		index	414487.790307
variable	lbox		index	74.5596591511
variable	lphase1		index	74.5596591511
variable	lxx		index	80.6296
variable	lyy		index	82.864
variable	lzz		index	80
variable	lzy		index	0
variable	lzx		index	0
variable	lyx		index	0
variable	vtotal		index	534503.293952
variable	nl_Gmax		index	18

# Types

variable	type_c		index	1
variable	type_cm		index	2
variable	type_c1		index	3
variable	type_c_1	index	4
variable	type_cp		index	5
variable	type_hc		index	6
variable	type_ho		index	7
variable	type_n4		index	8
variable	type_om		index	9
variable	type_o_1	index	10
variable	type_o_2	index	11
variable	type_oc		index	12
variable	type_oh		index	13

variable	type_bond_c_c	index	1
variable	type_bond_c_cm	index	2
variable	type_bond_c_c1	index	3
variable	type_bond_c_hc	index	4
variable	type_bond_c_n4	index	5
variable	type_bond_c_o_2	index	6
variable	type_bond_c_oc	index	7
variable	type_bond_c_oh	index	8
variable	type_bond_cm_om	index	9
variable	type_bond_c1_c_1 index	10
variable	type_bond_c1_hc	index	11
variable	type_bond_c_1_o_1 index	12
variable	type_bond_c_1_o_2 index	13
variable	type_bond_cp_cp	index	14
variable	type_bond_cp_hc	index	15
variable	type_bond_cp_oc	index	16
variable	type_bond_ho_oh	index	17

variable	type_angle_c_c_c index	1
variable	type_angle_c_c_cm index	2
variable	type_angle_c_c_c1 index	3
variable	type_angle_c_c_hc index	4
variable	type_angle_c_c_n4 index	5
variable	type_angle_c_c_o_2 index	6
variable	type_angle_c_c_oc index	7
variable	type_angle_c_c_oh index	8
variable	type_angle_c_cm_om index	9
variable	type_angle_c_c1_c index	10
variable	type_angle_c_c1_c_1 index	11
variable	type_angle_c_c1_hc index	12
variable	type_angle_c_n4_c index	13
variable	type_angle_c_o_2_c_1 index	14
variable	type_angle_c_oc_cp index	15
variable	type_angle_c_oh_ho index	16
variable	type_angle_cm_c_hc index	17
variable	type_angle_c1_c_c1 index	18
variable	type_angle_c1_c_hc index	19
variable	type_angle_c1_c_1_o_1 index	20
variable	type_angle_c1_c_1_o_2 index	21
variable	type_angle_c_1_c1_hc index	22
variable	type_angle_cp_cp_cp index	23
variable	type_angle_cp_cp_hc index	24
variable	type_angle_cp_cp_oc index	25
variable	type_angle_hc_c_hc index	26
variable	type_angle_hc_c_n4 index	27
variable	type_angle_hc_c_o_2 index	28
variable	type_angle_hc_c_oc index	29
variable	type_angle_hc_c_oh index	30
variable	type_angle_om_cm_om index	31
variable	type_angle_o_1_c_1_o_2 index	32

# Clusters

variable	n0_Gmax		index	1
variable	n1_Gmax		index	18
variable	nl_Gmax		index	18

# Flags

variable	flag_charged	index	1

# Masses

mass		 1    12.01115  # c
mass		 2    12.01115  # c-
mass		 3    12.01115  # c1
mass		 4    12.01115  # c_1
mass		 5    12.01115  # cp
mass		 6     1.00797  # hc
mass		 7     1.00797  # ho
mass		 8    14.00670  # n4
mass		 9    15.99940  # o-
mass		10    15.99940  # o_1
mass		11    15.99940  # o_2
mass		12    15.99940  # oc
mass		13    15.99940  # oh

# Potentials

pair_style	lj/class2/coul/long ${cutoff} ${charge_cutoff}  # 9.5
pair_style	lj/class2/coul/long 12 ${charge_cutoff}  
pair_style	lj/class2/coul/long 12 12  
bond_style	class2
angle_style	class2
dihedral_style	class2
improper_style	class2
pair_modify	mix sixthpower tail yes
special_bonds	lj/coul 0 0 1

# Pair Coeffs

pair_coeff	 1  1    0.05400    4.01000  # c,c
pair_coeff	 2  2    0.12000    3.90800  # c-,c-
pair_coeff	 3  3    0.05400    4.01000  # c1,c1
pair_coeff	 4  4    0.12000    3.81000  # c_1,c_1
pair_coeff	 5  5    0.06400    4.01000  # cp,cp
pair_coeff	 6  6    0.02000    2.99500  # hc,hc
pair_coeff	 7  7    0.01300    1.09800  # ho,ho
pair_coeff	 8  8    0.06500    3.26200  # n4,n4
pair_coeff	 9  9    0.16700    3.59600  # o-,o-
pair_coeff	10 10    0.26700    3.30000  # o_1,o_1
pair_coeff	11 11    0.24000    3.42000  # o_2,o_2
pair_coeff	12 12    0.24000    3.53500  # oc,oc
pair_coeff	13 13    0.24000    3.53500  # oh,oh

# Bond Coeffs

bond_coeff	 1    1.53000  299.67000 -501.77000  679.81000  # c,c
bond_coeff	 2    1.54830  253.08000 -449.03000  457.32000  # c,c-
bond_coeff	 3    1.53000  299.67000 -501.77000  679.81000  # c,c1
bond_coeff	 4    1.10100  345.00000 -691.89000  844.60000  # c,hc
bond_coeff	 5    1.51850  293.17000 -603.78820  629.69000  # c,n4
bond_coeff	 6    1.43000  326.72730 -608.53060  689.03330  # c,o_2
bond_coeff	 7    1.42000  400.39540 -835.19510 1313.01420  # c,oc
bond_coeff	 8    1.42000  400.39540 -835.19510 1313.01420  # c,oh
bond_coeff	 9    1.23390  711.35000 -1543.90000 1858.60000  # c-,o-
bond_coeff	10    1.52020  253.70670 -423.03700  396.90000  # c1,c_1
bond_coeff	11    1.10100  345.00000 -691.89000  844.60000  # c1,hc
bond_coeff	12    1.20200  851.14030 -1918.48820 2160.76590  # c_1,o_1
bond_coeff	13    1.36830  367.14810 -794.79080 1055.23190  # c_1,o_2
bond_coeff	14    1.41700  470.83610 -627.61790 1327.63450  # cp,cp
bond_coeff	15    1.09820  372.82510 -803.45260  894.31730  # cp,hc
bond_coeff	16    1.37680  428.87980 -738.23510 1114.96550  # cp,oc
bond_coeff	17    0.96500  532.50620 -1282.90500 2004.76580  # ho,oh

# Angle Coeffs

angle_coeff	 1  112.67000   39.51600   -7.44300   -9.55830  # c,c,c
angle_coeff	 2  104.49000   31.37500   -4.40230   -6.52710  # c,c,c-
angle_coeff	 3  112.67000   39.51600   -7.44300   -9.55830  # c,c,c1
angle_coeff	 4  110.77000   41.45300  -10.60400    5.12900  # c,c,hc
angle_coeff	 5  112.13000   66.45200    4.86940   37.78600  # c,c,n4
angle_coeff	 6  107.41000   63.39070  -13.45130    1.66500  # c,c,o_2
angle_coeff	 7  111.27000   54.53810   -8.36420  -13.08380  # c,c,oc
angle_coeff	 8  111.27000   54.53810   -8.36420  -13.08380  # c,c,oh
angle_coeff	 9  115.06000   59.09600  -15.14300  -12.98200  # c,c-,o-
angle_coeff	10  112.67000   39.51600   -7.44300   -9.55830  # c,c1,c
angle_coeff	11  108.52950   51.97470   -9.48510  -10.99850  # c,c1,c_1
angle_coeff	12  110.77000   41.45300  -10.60400    5.12900  # c,c1,hc
angle_coeff	13  109.77000   44.82200   -3.91320    0.00000  # c,n4,c
angle_coeff	14  113.28800   61.28680  -28.97860    7.99290  # c,o_2,c_1
angle_coeff	15  102.96950   38.97390   -6.25950   -8.17100  # c,oc,cp
angle_coeff	16  105.80000   52.70610  -12.10900   -9.86810  # c,oh,ho
angle_coeff	17  109.67000   37.91900   -7.38770   -8.06940  # c-,c,hc
angle_coeff	18  112.67000   39.51600   -7.44300   -9.55830  # c1,c,c1
angle_coeff	19  110.77000   41.45300  -10.60400    5.12900  # c1,c,hc
angle_coeff	20  123.14510   55.54310  -17.21230    0.13480  # c1,c_1,o_1
angle_coeff	21  100.31820   38.86310   -3.83230   -7.98020  # c1,c_1,o_2
angle_coeff	22  107.73360   40.60990  -28.81210    0.00000  # c_1,c1,hc
angle_coeff	23  118.90000   61.02260  -34.99310    0.00000  # cp,cp,cp
angle_coeff	24  117.94000   35.15580  -12.46820    0.00000  # cp,cp,hc
angle_coeff	25  123.42000   73.67810  -21.67870    0.00000  # cp,cp,oc
angle_coeff	26  107.66000   39.64100  -12.92100   -2.43180  # hc,c,hc
angle_coeff	27  105.85000   72.26300  -28.19230    0.00000  # hc,c,n4
angle_coeff	28  107.68800   65.48010  -10.34980    5.88660  # hc,c,o_2
angle_coeff	29  108.72800   58.54460  -10.80880  -12.40060  # hc,c,oc
angle_coeff	30  108.72800   58.54460  -10.80880  -12.40060  # hc,c,oh
angle_coeff	31  130.01000  111.29000  -52.33900  -28.10700  # o-,c-,o-
angle_coeff	32  120.79700   95.34460  -32.28690    6.37780  # o_1,c_1,o_2

# BondBond Coeffs

angle_coeff	 1 bb    0.00000    1.53000    1.53000  # c,c,c
angle_coeff	 2 bb   16.46500    1.53000    1.54830  # c,c,c-
angle_coeff	 3 bb    0.00000    1.53000    1.53000  # c,c,c1
angle_coeff	 4 bb    3.38720    1.53000    1.10100  # c,c,hc
angle_coeff	 5 bb   16.42800    1.53000    1.51850  # c,c,n4
angle_coeff	 6 bb   23.26470    1.53000    1.43000  # c,c,o_2
angle_coeff	 7 bb   11.43180    1.53000    1.42000  # c,c,oc
angle_coeff	 8 bb   11.43180    1.53000    1.42000  # c,c,oh
angle_coeff	 9 bb   57.87500    1.54830    1.23390  # c,c-,o-
angle_coeff	10 bb    0.00000    1.53000    1.53000  # c,c1,c
angle_coeff	11 bb    5.41990    1.53000    1.52020  # c,c1,c_1
angle_coeff	12 bb    3.38720    1.53000    1.10100  # c,c1,hc
angle_coeff	13 bb   14.95900    1.51850    1.51850  # c,n4,c
angle_coeff	14 bb   45.45030    1.43000    1.36830  # c,o_2,c_1
angle_coeff	15 bb    0.00000    1.42000    1.37680  # c,oc,cp
angle_coeff	16 bb   -9.68790    1.42000    0.96500  # c,oh,ho
angle_coeff	17 bb   -1.17010    1.54830    1.10100  # c-,c,hc
angle_coeff	18 bb    0.00000    1.53000    1.53000  # c1,c,c1
angle_coeff	19 bb    3.38720    1.53000    1.10100  # c1,c,hc
angle_coeff	20 bb   46.06850    1.52020    1.20200  # c1,c_1,o_1
angle_coeff	21 bb   19.10690    1.52020    1.36830  # c1,c_1,o_2
angle_coeff	22 bb    0.71150    1.52020    1.10100  # c_1,c1,hc
angle_coeff	23 bb   68.28560    1.41700    1.41700  # cp,cp,cp
angle_coeff	24 bb    1.07950    1.41700    1.09820  # cp,cp,hc
angle_coeff	25 bb   48.47540    1.41700    1.37680  # cp,cp,oc
angle_coeff	26 bb    5.33160    1.10100    1.10100  # hc,c,hc
angle_coeff	27 bb   -1.47970    1.10100    1.51850  # hc,c,n4
angle_coeff	28 bb    5.64540    1.10100    1.43000  # hc,c,o_2
angle_coeff	29 bb   23.19790    1.10100    1.42000  # hc,c,oc
angle_coeff	30 bb   23.19790    1.10100    1.42000  # hc,c,oh
angle_coeff	31 bb  166.59000    1.23390    1.23390  # o-,c-,o-
angle_coeff	32 bb  121.48800    1.20200    1.36830  # o_1,c_1,o_2

# BondAngle Coeffs

angle_coeff	 1 ba    8.01600    8.01600    1.53000    1.53000  # c,c,c
angle_coeff	 2 ba   23.08400   19.15900    1.53000    1.54830  # c,c,c-
angle_coeff	 3 ba    8.01600    8.01600    1.53000    1.53000  # c,c,c1
angle_coeff	 4 ba   20.75400   11.42100    1.53000    1.10100  # c,c,hc
angle_coeff	 5 ba   14.06200   49.77300    1.53000    1.51850  # c,c,n4
angle_coeff	 6 ba   23.39200   47.94870    1.53000    1.43000  # c,c,o_2
angle_coeff	 7 ba    2.68680   20.40330    1.53000    1.42000  # c,c,oc
angle_coeff	 8 ba    2.68680   20.40330    1.53000    1.42000  # c,c,oh
angle_coeff	 9 ba   51.58400   62.05600    1.54830    1.23390  # c,c-,o-
angle_coeff	10 ba    8.01600    8.01600    1.53000    1.53000  # c,c1,c
angle_coeff	11 ba   18.16780   15.87580    1.53000    1.52020  # c,c1,c_1
angle_coeff	12 ba   20.75400   11.42100    1.53000    1.10100  # c,c1,hc
angle_coeff	13 ba   23.09300   23.09300    1.51850    1.51850  # c,n4,c
angle_coeff	14 ba   41.91160   46.46080    1.43000    1.36830  # c,o_2,c_1
angle_coeff	15 ba    0.00000    0.00000    1.42000    1.37680  # c,oc,cp
angle_coeff	16 ba   28.58000   18.92770    1.42000    0.96500  # c,oh,ho
angle_coeff	17 ba   11.86500   14.96500    1.54830    1.10100  # c-,c,hc
angle_coeff	18 ba    8.01600    8.01600    1.53000    1.53000  # c1,c,c1
angle_coeff	19 ba   20.75400   11.42100    1.53000    1.10100  # c1,c,hc
angle_coeff	20 ba   34.99820   37.12980    1.52020    1.20200  # c1,c_1,o_1
angle_coeff	21 ba    1.34350    4.69780    1.52020    1.36830  # c1,c_1,o_2
angle_coeff	22 ba   12.46320    9.17650    1.52020    1.10100  # c_1,c1,hc
angle_coeff	23 ba   28.87080   28.87080    1.41700    1.41700  # cp,cp,cp
angle_coeff	24 ba   20.00330   24.21830    1.41700    1.09820  # cp,cp,hc
angle_coeff	25 ba   58.47900  107.68060    1.41700    1.37680  # cp,cp,oc
angle_coeff	26 ba   18.10300   18.10300    1.10100    1.10100  # hc,c,hc
angle_coeff	27 ba   15.88200   50.01800    1.10100    1.51850  # hc,c,n4
angle_coeff	28 ba    8.68640   57.49750    1.10100    1.43000  # hc,c,o_2
angle_coeff	29 ba    4.61890   55.32700    1.10100    1.42000  # hc,c,oc
angle_coeff	30 ba    4.61890   55.32700    1.10100    1.42000  # hc,c,oh
angle_coeff	31 ba   73.35000   73.35000    1.23390    1.23390  # o-,c-,o-
angle_coeff	32 ba   76.26140   71.87610    1.20200    1.36830  # o_1,c_1,o_2

# Dihedral Coeffs

dihedral_coeff	 1    0.00000    0.00000    0.05140    0.00000   -0.14300    0.00000  # c,c,c,c
dihedral_coeff	 2    0.00000    0.00000    0.03160    0.00000   -0.16810    0.00000  # c,c,c,hc
dihedral_coeff	 3    0.00000    0.00000    0.00000    0.00000   -0.25000    0.00000  # c,c,c,o_2
dihedral_coeff	 4    1.73110    0.00000    1.85100    0.00000   -0.19330    0.00000  # c,c,c-,o-
dihedral_coeff	 5    0.00000    0.00000    0.05140    0.00000   -0.14300    0.00000  # c,c,c1,c
dihedral_coeff	 6    0.09720    0.00000    0.07220    0.00000   -0.25810    0.00000  # c,c,c1,c_1
dihedral_coeff	 7    0.00000    0.00000    0.03160    0.00000   -0.16810    0.00000  # c,c,c1,hc
dihedral_coeff	 8    0.70770    0.00000   -0.37440    0.00000   -0.19140    0.00000  # c,c,n4,c
dihedral_coeff	 9    0.00000    0.00000    0.00000    0.00000   -0.19320    0.00000  # c,c,o_2,c_1
dihedral_coeff	10    0.00000    0.00000    0.00000    0.00000    0.13000  180.00000  # c,c,oc,cp
dihedral_coeff	11   -0.67320    0.00000   -0.47780    0.00000   -0.16700    0.00000  # c,c,oh,ho
dihedral_coeff	12    0.00000    0.00000    0.05140    0.00000   -0.14300    0.00000  # c,c1,c,c1
dihedral_coeff	13    0.00000    0.00000    0.03160    0.00000   -0.16810    0.00000  # c,c1,c,hc
dihedral_coeff	14    0.04420    0.00000    0.02920    0.00000    0.05620    0.00000  # c,c1,c_1,o_1
dihedral_coeff	15    1.83410    0.00000    2.06030    0.00000   -0.01950    0.00000  # c,c1,c_1,o_2
dihedral_coeff	16    0.36240    0.00000    0.10120    0.00000   -0.24860    0.00000  # c,n4,c,hc
dihedral_coeff	17   -2.55940    0.00000    2.20130    0.00000    0.03250    0.00000  # c,o_2,c_1,c1
dihedral_coeff	18    0.00000    0.00000    2.20890    0.00000    0.00000    0.00000  # c,o_2,c_1,o_1
dihedral_coeff	19    0.00000    0.00000    1.50000    0.00000    0.00000    0.00000  # c,oc,cp,cp
dihedral_coeff	20   -1.27670    0.00000    0.59490    0.00000    0.23790    0.00000  # c-,c,c,hc
dihedral_coeff	21    0.00000    0.00000    0.00000    0.00000    0.15800  180.00000  # c-,c,c,o_2
dihedral_coeff	22    0.00000    0.00000    0.03160    0.00000   -0.16810    0.00000  # c1,c,c,hc
dihedral_coeff	23    0.09720    0.00000    0.07220    0.00000   -0.25810    0.00000  # c1,c,c1,c_1
dihedral_coeff	24    0.00000    0.00000    0.03160    0.00000   -0.16810    0.00000  # c1,c,c1,hc
dihedral_coeff	25   -0.02280    0.00000    0.02800    0.00000   -0.18630    0.00000  # c_1,c1,c,hc
dihedral_coeff	26    0.00000    0.00000    0.00000    0.00000   -0.19320    0.00000  # c_1,o_2,c,hc
dihedral_coeff	27    8.36670    0.00000    1.19320    0.00000    0.00000    0.00000  # cp,cp,cp,cp
dihedral_coeff	28    0.00000    0.00000    3.96610    0.00000    0.00000    0.00000  # cp,cp,cp,hc
dihedral_coeff	29    0.00000    0.00000    4.84980    0.00000    0.00000    0.00000  # cp,cp,cp,oc
dihedral_coeff	30    0.95130    0.00000    0.11550    0.00000    0.07200    0.00000  # cp,oc,c,hc
dihedral_coeff	31   -0.14320    0.00000    0.06170    0.00000   -0.10830    0.00000  # hc,c,c,hc
dihedral_coeff	32   -0.21790    0.00000   -0.41270    0.00000   -0.12520    0.00000  # hc,c,c,n4
dihedral_coeff	33    0.00000    0.00000    0.00000    0.00000   -0.25000    0.00000  # hc,c,c,o_2
dihedral_coeff	34   -0.14350    0.00000    0.25300    0.00000   -0.09050    0.00000  # hc,c,c,oc
dihedral_coeff	35   -0.14350    0.00000    0.25300    0.00000   -0.09050    0.00000  # hc,c,c,oh
dihedral_coeff	36   -2.59990    0.00000    1.04880    0.00000   -0.20890    0.00000  # hc,c,c-,o-
dihedral_coeff	37   -0.14320    0.00000    0.06170    0.00000   -0.10830    0.00000  # hc,c,c1,hc
dihedral_coeff	38    0.18630    0.00000   -0.43380    0.00000   -0.21210    0.00000  # hc,c,oh,ho
dihedral_coeff	39   -0.18040    0.00000    0.00120    0.00000    0.03710    0.00000  # hc,c1,c_1,o_1
dihedral_coeff	40   -0.63590    0.00000    1.48070    0.00000   -0.04380    0.00000  # hc,c1,c_1,o_2
dihedral_coeff	41    0.00000    0.00000    1.87690    0.00000    0.00000    0.00000  # hc,cp,cp,hc
dihedral_coeff	42    0.00000    0.00000    1.72340    0.00000    0.00000    0.00000  # hc,cp,cp,oc
dihedral_coeff	43    0.00000    0.00000    0.00000    0.00000    0.15800  180.00000  # n4,c,c,o_2
dihedral_coeff	44    0.00000    0.00000    0.00000    0.00000    0.15800  180.00000  # o_2,c,c,oc
dihedral_coeff	45    0.00000    0.00000    0.00000    0.00000    0.15800  180.00000  # o_2,c,c,oh

# MiddleBondTorsion Coeffs

dihedral_coeff	 1 mbt  -17.78700   -7.18770    0.00000    1.53000  # c,c,c,c
dihedral_coeff	 2 mbt  -14.87900   -3.65810   -0.31380    1.53000  # c,c,c,hc
dihedral_coeff	 3 mbt    0.00000    0.00000    0.00000    1.53000  # c,c,c,o_2
dihedral_coeff	 4 mbt    0.67980    0.93880   -1.84780    1.54830  # c,c,c-,o-
dihedral_coeff	 5 mbt  -17.78700   -7.18770    0.00000    1.53000  # c,c,c1,c
dihedral_coeff	 6 mbt   -1.59450    0.22670   -0.69110    1.53000  # c,c,c1,c_1
dihedral_coeff	 7 mbt  -14.87900   -3.65810   -0.31380    1.53000  # c,c,c1,hc
dihedral_coeff	 8 mbt    6.25790   -5.08180    6.05110    1.51850  # c,c,n4,c
dihedral_coeff	 9 mbt   -5.43500    0.00000    0.00000    1.43000  # c,c,o_2,c_1
dihedral_coeff	10 mbt    0.00000    0.00000    0.00000    1.42000  # c,c,oc,cp
dihedral_coeff	11 mbt    1.24720    0.00000    0.74850    1.42000  # c,c,oh,ho
dihedral_coeff	12 mbt  -17.78700   -7.18770    0.00000    1.53000  # c,c1,c,c1
dihedral_coeff	13 mbt  -14.87900   -3.65810   -0.31380    1.53000  # c,c1,c,hc
dihedral_coeff	14 mbt    0.33880   -0.10960    0.12190    1.52020  # c,c1,c_1,o_1
dihedral_coeff	15 mbt  -17.32800   -5.79000   -3.21140    1.52020  # c,c1,c_1,o_2
dihedral_coeff	16 mbt    0.76300    2.63030   -2.59740    1.51850  # c,n4,c,hc
dihedral_coeff	17 mbt    1.34450    3.55150   -4.92020    1.36830  # c,o_2,c_1,c1
dihedral_coeff	18 mbt    4.26000    0.00000    0.00000    1.36830  # c,o_2,c_1,o_1
dihedral_coeff	19 mbt    0.00000    0.00000    0.00000    1.37680  # c,oc,cp,cp
dihedral_coeff	20 mbt  -13.64200   -0.88430    0.21180    1.53000  # c-,c,c,hc
dihedral_coeff	21 mbt    0.00000    0.00000    0.00000    1.53000  # c-,c,c,o_2
dihedral_coeff	22 mbt  -14.87900   -3.65810   -0.31380    1.53000  # c1,c,c,hc
dihedral_coeff	23 mbt   -1.59450    0.22670   -0.69110    1.53000  # c1,c,c1,c_1
dihedral_coeff	24 mbt  -14.87900   -3.65810   -0.31380    1.53000  # c1,c,c1,hc
dihedral_coeff	25 mbt   -3.50390    1.24580   -0.76100    1.53000  # c_1,c1,c,hc
dihedral_coeff	26 mbt    0.00000    0.00000    0.00000    1.43000  # c_1,o_2,c,hc
dihedral_coeff	27 mbt   27.59890   -2.31200    0.00000    1.41700  # cp,cp,cp,cp
dihedral_coeff	28 mbt    0.00000   -1.15210    0.00000    1.41700  # cp,cp,cp,hc
dihedral_coeff	29 mbt    0.00000    4.82550    0.00000    1.41700  # cp,cp,cp,oc
dihedral_coeff	30 mbt    0.00000    0.00000    0.00000    1.42000  # cp,oc,c,hc
dihedral_coeff	31 mbt  -14.26100   -0.53220   -0.48640    1.53000  # hc,c,c,hc
dihedral_coeff	32 mbt   -9.88260   -3.71380   -0.10220    1.53000  # hc,c,c,n4
dihedral_coeff	33 mbt    0.00000    0.00000    0.00000    1.53000  # hc,c,c,o_2
dihedral_coeff	34 mbt  -16.79750   -1.22960   -0.27500    1.53000  # hc,c,c,oc
dihedral_coeff	35 mbt  -16.79750   -1.22960   -0.27500    1.53000  # hc,c,c,oh
dihedral_coeff	36 mbt   -5.70090    0.77580   -0.40900    1.54830  # hc,c,c-,o-
dihedral_coeff	37 mbt  -14.26100   -0.53220   -0.48640    1.53000  # hc,c,c1,hc
dihedral_coeff	38 mbt    0.00000    0.92410   -0.58890    1.42000  # hc,c,oh,ho
dihedral_coeff	39 mbt    0.23590    0.91390    0.95940    1.52020  # hc,c1,c_1,o_1
dihedral_coeff	40 mbt  -13.76860   -2.59590    1.19340    1.52020  # hc,c1,c_1,o_2
dihedral_coeff	41 mbt    0.00000    4.82280    0.00000    1.41700  # hc,cp,cp,hc
dihedral_coeff	42 mbt    0.00000    5.54320    0.00000    1.41700  # hc,cp,cp,oc
dihedral_coeff	43 mbt    0.00000    0.00000    0.00000    1.53000  # n4,c,c,o_2
dihedral_coeff	44 mbt    0.00000    0.00000    0.00000    1.53000  # o_2,c,c,oc
dihedral_coeff	45 mbt    0.00000    0.00000    0.00000    1.53000  # o_2,c,c,oh

# EndBondTorsion Coeffs

dihedral_coeff	 1 ebt   -0.07320    0.00000    0.00000   -0.07320    0.00000    0.00000    1.53000    1.53000  # c,c,c,c
dihedral_coeff	 2 ebt    0.24860    0.24220   -0.09250    0.08140    0.05910    0.22190    1.53000    1.10100  # c,c,c,hc
dihedral_coeff	 3 ebt    0.00000    0.00000    0.00000    0.00000    0.00000    0.00000    1.53000    1.43000  # c,c,c,o_2
dihedral_coeff	 4 ebt    0.00000    0.00000    0.00000    0.00000    0.00000    0.00000    1.53000    1.23390  # c,c,c-,o-
dihedral_coeff	 5 ebt   -0.07320    0.00000    0.00000   -0.07320    0.00000    0.00000    1.53000    1.53000  # c,c,c1,c
dihedral_coeff	 6 ebt    0.00620   -0.00020    0.00360    0.00550    0.00600   -0.00090    1.53000    1.52020  # c,c,c1,c_1
dihedral_coeff	 7 ebt    0.24860    0.24220   -0.09250    0.08140    0.05910    0.22190    1.53000    1.10100  # c,c,c1,hc
dihedral_coeff	 8 ebt    0.00000    0.00000    0.00000    0.00000    0.00000    0.00000    1.53000    1.51850  # c,c,n4,c
dihedral_coeff	 9 ebt    0.00000    0.00000    0.00000    0.00000    0.00000    0.00000    1.53000    1.36830  # c,c,o_2,c_1
dihedral_coeff	10 ebt    0.00000    0.00000    0.00000    0.00000    0.00000    0.00000    1.53000    1.37680  # c,c,oc,cp
dihedral_coeff	11 ebt   -0.58000    0.90040    0.00000    0.00000    0.53430    0.90250    1.53000    0.96500  # c,c,oh,ho
dihedral_coeff	12 ebt   -0.07320    0.00000    0.00000   -0.07320    0.00000    0.00000    1.53000    1.53000  # c,c1,c,c1
dihedral_coeff	13 ebt    0.24860    0.24220   -0.09250    0.08140    0.05910    0.22190    1.53000    1.10100  # c,c1,c,hc
dihedral_coeff	14 ebt    0.26540    0.05030    0.10460   -0.28100    0.08160   -0.15220    1.53000    1.20200  # c,c1,c_1,o_1
dihedral_coeff	15 ebt    0.00000    0.00000    0.00000    0.00000    0.00000    0.00000    1.53000    1.36830  # c,c1,c_1,o_2
dihedral_coeff	16 ebt    0.00000    0.00000    0.00000    0.00000    0.00000    0.00000    1.51850    1.10100  # c,n4,c,hc
dihedral_coeff	17 ebt    0.00000    0.00000    0.00000    0.00000    0.00000    0.00000    1.43000    1.52020  # c,o_2,c_1,c1
dihedral_coeff	18 ebt    0.00000    0.00000    0.00000    0.00000    0.00000    0.00000    1.43000    1.20200  # c,o_2,c_1,o_1
dihedral_coeff	19 ebt    0.00000    0.00000    0.00000    0.00000    0.00000    0.00000    1.42000    1.41700  # c,oc,cp,cp
dihedral_coeff	20 ebt    0.00000    0.00000    0.00000    0.00000    0.00000    0.00000    1.54830    1.10100  # c-,c,c,hc
dihedral_coeff	21 ebt    0.00000    0.00000    0.00000    0.00000    0.00000    0.00000    1.54830    1.43000  # c-,c,c,o_2
dihedral_coeff	22 ebt    0.24860    0.24220   -0.09250    0.08140    0.05910    0.22190    1.53000    1.10100  # c1,c,c,hc
dihedral_coeff	23 ebt    0.00620   -0.00020    0.00360    0.00550    0.00600   -0.00090    1.53000    1.52020  # c1,c,c1,c_1
dihedral_coeff	24 ebt    0.24860    0.24220   -0.09250    0.08140    0.05910    0.22190    1.53000    1.10100  # c1,c,c1,hc
dihedral_coeff	25 ebt   -0.02040    0.36280   -0.44260   -0.00970   -0.03150   -0.07550    1.52020    1.10100  # c_1,c1,c,hc
dihedral_coeff	26 ebt    0.00000    0.00000    0.00000    0.00000    0.00000    0.00000    1.36830    1.10100  # c_1,o_2,c,hc
dihedral_coeff	27 ebt   -0.11850    6.32040    0.00000   -0.11850    6.32040    0.00000    1.41700    1.41700  # cp,cp,cp,cp
dihedral_coeff	28 ebt    0.00000   -6.89580    0.00000    0.00000   -0.46690    0.00000    1.41700    1.09820  # cp,cp,cp,hc
dihedral_coeff	29 ebt    0.00000    0.26550    0.00000    0.00000    4.89050    0.00000    1.41700    1.37680  # cp,cp,cp,oc
dihedral_coeff	30 ebt    0.00000    0.00000    0.00000    0.00000    0.00000    0.00000    1.37680    1.10100  # cp,oc,c,hc
dihedral_coeff	31 ebt    0.21300    0.31200    0.07770    0.21300    0.31200    0.07770    1.10100    1.10100  # hc,c,c,hc
dihedral_coeff	32 ebt    0.00000    0.00000    0.00000    0.00000    0.00000    0.00000    1.10100    1.51850  # hc,c,c,n4
dihedral_coeff	33 ebt    0.00000    0.00000    0.00000    0.00000    0.00000    0.00000    1.10100    1.43000  # hc,c,c,o_2
dihedral_coeff	34 ebt    0.96810    0.95510    0.04360    0.59030    0.66690    0.85840    1.10100    1.42000  # hc,c,c,oc
dihedral_coeff	35 ebt    0.96810    0.95510    0.04360    0.59030    0.66690    0.85840    1.10100    1.42000  # hc,c,c,oh
dihedral_coeff	36 ebt    0.00000    0.00000    0.00000    0.00000    0.00000    0.00000    1.10100    1.23390  # hc,c,c-,o-
dihedral_coeff	37 ebt    0.21300    0.31200    0.07770    0.21300    0.31200    0.07770    1.10100    1.10100  # hc,c,c1,hc
dihedral_coeff	38 ebt   -1.75540    1.31450    0.22630    0.24930    0.68030    0.00000    1.10100    0.96500  # hc,c,oh,ho
dihedral_coeff	39 ebt    1.21430    0.28310    0.39160   -0.22980    0.03540    0.38530    1.10100    1.20200  # hc,c1,c_1,o_1
dihedral_coeff	40 ebt    0.00000    0.00000    0.00000    0.00000    0.00000    0.00000    1.10100    1.36830  # hc,c1,c_1,o_2
dihedral_coeff	41 ebt    0.00000   -0.68900    0.00000    0.00000   -0.68900    0.00000    1.09820    1.09820  # hc,cp,cp,hc
dihedral_coeff	42 ebt    0.00000   -1.58670    0.00000    0.00000    4.26410    0.00000    1.09820    1.37680  # hc,cp,cp,oc
dihedral_coeff	43 ebt    0.00000    0.00000    0.00000    0.00000    0.00000    0.00000    1.51850    1.43000  # n4,c,c,o_2
dihedral_coeff	44 ebt    0.00000    0.00000    0.00000    0.00000    0.00000    0.00000    1.43000    1.42000  # o_2,c,c,oc
dihedral_coeff	45 ebt    0.00000    0.00000    0.00000    0.00000    0.00000    0.00000    1.43000    1.42000  # o_2,c,c,oh

# AngleTorsion Coeffs

dihedral_coeff	 1 at    0.38860   -0.31390    0.13890    0.38860   -0.31390    0.13890  112.67000  112.67000  # c,c,c,c
dihedral_coeff	 2 at   -0.24540    0.00000   -0.11360    0.31130    0.45160   -0.19880  112.67000  110.77000  # c,c,c,hc
dihedral_coeff	 3 at    0.00000    0.00000    0.00000    0.00000    0.00000    0.00000  112.67000  107.41000  # c,c,c,o_2
dihedral_coeff	 4 at   13.22200    1.32710   -0.39410    2.93330    2.25930   -0.55730  104.49000  115.06000  # c,c,c-,o-
dihedral_coeff	 5 at    0.38860   -0.31390    0.13890    0.38860   -0.31390    0.13890  112.67000  112.67000  # c,c,c1,c
dihedral_coeff	 6 at   -0.26070    0.32030   -0.22830    0.05150   -0.06740   -0.04740  112.67000  108.52950  # c,c,c1,c_1
dihedral_coeff	 7 at   -0.24540    0.00000   -0.11360    0.31130    0.45160   -0.19880  112.67000  110.77000  # c,c,c1,hc
dihedral_coeff	 8 at   -1.28770    4.80560    1.14810   -3.76820    2.74640   -1.62720  112.13000  109.77000  # c,c,n4,c
dihedral_coeff	 9 at    0.00000    0.00000    0.00000    0.00000    0.00000    0.00000  107.41000  113.28800  # c,c,o_2,c_1
dihedral_coeff	10 at    0.00000    0.00000    0.00000    0.00000    0.00000    0.00000  111.27000  102.96950  # c,c,oc,cp
dihedral_coeff	11 at   -3.59030    2.52250    0.48880    0.87260   -0.35770    0.38880  111.27000  105.80000  # c,c,oh,ho
dihedral_coeff	12 at    0.38860   -0.31390    0.13890    0.38860   -0.31390    0.13890  112.67000  112.67000  # c,c1,c,c1
dihedral_coeff	13 at   -0.24540    0.00000   -0.11360    0.31130    0.45160   -0.19880  112.67000  110.77000  # c,c1,c,hc
dihedral_coeff	14 at    0.08850   -1.37030   -0.54520    0.67500    0.59650    0.67250  108.52950  123.14510  # c,c1,c_1,o_1
dihedral_coeff	15 at    0.00000    0.00000    0.00000    0.00000    0.00000    0.00000  108.52950  100.31820  # c,c1,c_1,o_2
dihedral_coeff	16 at    1.68400    0.40870    0.42930   -0.08390    1.54770   -0.22840  109.77000  105.85000  # c,n4,c,hc
dihedral_coeff	17 at    0.00000    0.00000    0.00000    0.00000    0.00000    0.00000  113.28800  100.31820  # c,o_2,c_1,c1
dihedral_coeff	18 at    0.00000    0.00000    0.00000    0.00000    0.00000    0.00000  113.28800  120.79700  # c,o_2,c_1,o_1
dihedral_coeff	19 at    0.00000    0.00000    0.00000    0.00000    0.00000    0.00000  102.96950  123.42000  # c,oc,cp,cp
dihedral_coeff	20 at    1.65750   -0.45770    0.36100    3.93180    2.22350    0.36700  104.49000  110.77000  # c-,c,c,hc
dihedral_coeff	21 at    0.00000    0.00000    0.00000    0.00000    0.00000    0.00000  104.49000  107.41000  # c-,c,c,o_2
dihedral_coeff	22 at   -0.24540    0.00000   -0.11360    0.31130    0.45160   -0.19880  112.67000  110.77000  # c1,c,c,hc
dihedral_coeff	23 at   -0.26070    0.32030   -0.22830    0.05150   -0.06740   -0.04740  112.67000  108.52950  # c1,c,c1,c_1
dihedral_coeff	24 at   -0.24540    0.00000   -0.11360    0.31130    0.45160   -0.19880  112.67000  110.77000  # c1,c,c1,hc
dihedral_coeff	25 at   -0.74660   -0.94480   -0.63210    0.01620    1.42110   -1.40920  108.52950  110.77000  # c_1,c1,c,hc
dihedral_coeff	26 at    0.00000    0.00000    0.00000    0.00000    0.00000    0.00000  113.28800  107.68800  # c_1,o_2,c,hc
dihedral_coeff	27 at    1.97670    1.02390    0.00000    1.97670    1.02390    0.00000  118.90000  118.90000  # cp,cp,cp,cp
dihedral_coeff	28 at    0.00000    2.50140    0.00000    0.00000    2.71470    0.00000  118.90000  117.94000  # cp,cp,cp,hc
dihedral_coeff	29 at    0.00000   10.01550    0.00000    0.00000    1.74040    0.00000  118.90000  123.42000  # cp,cp,cp,oc
dihedral_coeff	30 at    0.00000    0.00000    0.00000    0.00000    0.00000    0.00000  102.96950  108.72800  # cp,oc,c,hc
dihedral_coeff	31 at   -0.80850    0.55690   -0.24660   -0.80850    0.55690   -0.24660  110.77000  110.77000  # hc,c,c,hc
dihedral_coeff	32 at   -3.41090    0.64760   -0.95840   -2.86940    1.61720   -1.46270  110.77000  112.13000  # hc,c,c,n4
dihedral_coeff	33 at    0.00000    0.00000    0.00000    0.00000    0.00000    0.00000  110.77000  107.41000  # hc,c,c,o_2
dihedral_coeff	34 at    2.36680    2.49200   -1.01220   -0.18920    0.49180    0.72730  110.77000  111.27000  # hc,c,c,oc
dihedral_coeff	35 at    2.36680    2.49200   -1.01220   -0.18920    0.49180    0.72730  110.77000  111.27000  # hc,c,c,oh
dihedral_coeff	36 at   12.07200    0.23880   -0.04260   -4.28250    1.12540   -0.14810  109.67000  115.06000  # hc,c,c-,o-
dihedral_coeff	37 at   -0.80850    0.55690   -0.24660   -0.80850    0.55690   -0.24660  110.77000  110.77000  # hc,c,c1,hc
dihedral_coeff	38 at   -3.40600    1.63960    0.07370    0.00000   -0.28100   -0.59440  108.72800  105.80000  # hc,c,oh,ho
dihedral_coeff	39 at    9.12990   -0.48470    0.35820   -1.49460    0.73080   -0.20830  107.73360  123.14510  # hc,c1,c_1,o_1
dihedral_coeff	40 at    0.00000    0.00000    0.00000    0.00000    0.00000    0.00000  107.73360  100.31820  # hc,c1,c_1,o_2
dihedral_coeff	41 at    0.00000    2.45010    0.00000    0.00000    2.45010    0.00000  117.94000  117.94000  # hc,cp,cp,hc
dihedral_coeff	42 at    0.00000    1.87290    0.00000    0.00000    2.57060    0.00000  117.94000  123.42000  # hc,cp,cp,oc
dihedral_coeff	43 at    0.00000    0.00000    0.00000    0.00000    0.00000    0.00000  112.13000  107.41000  # n4,c,c,o_2
dihedral_coeff	44 at    0.00000    0.00000    0.00000    0.00000    0.00000    0.00000  107.41000  111.27000  # o_2,c,c,oc
dihedral_coeff	45 at    0.00000    0.00000    0.00000    0.00000    0.00000    0.00000  107.41000  111.27000  # o_2,c,c,oh

# AngleAngleTorsion Coeffs

dihedral_coeff	 1 aat  -22.04500  112.67000  112.67000  # c,c,c,c
dihedral_coeff	 2 aat  -16.16400  112.67000  110.77000  # c,c,c,hc
dihedral_coeff	 3 aat    0.00000  112.67000  107.41000  # c,c,c,o_2
dihedral_coeff	 4 aat  -28.74200  104.49000  115.06000  # c,c,c-,o-
dihedral_coeff	 5 aat  -22.04500  112.67000  112.67000  # c,c,c1,c
dihedral_coeff	 6 aat   -0.38010  112.67000  108.52950  # c,c,c1,c_1
dihedral_coeff	 7 aat  -16.16400  112.67000  110.77000  # c,c,c1,hc
dihedral_coeff	 8 aat  -18.15940  112.13000  109.77000  # c,c,n4,c
dihedral_coeff	 9 aat    0.00000  107.41000  113.28800  # c,c,o_2,c_1
dihedral_coeff	10 aat    0.00000  111.27000  102.96950  # c,c,oc,cp
dihedral_coeff	11 aat  -12.10380  111.27000  105.80000  # c,c,oh,ho
dihedral_coeff	12 aat  -22.04500  112.67000  112.67000  # c,c1,c,c1
dihedral_coeff	13 aat  -16.16400  112.67000  110.77000  # c,c1,c,hc
dihedral_coeff	14 aat   -8.01900  108.52950  123.14510  # c,c1,c_1,o_1
dihedral_coeff	15 aat    0.00000  108.52950  100.31820  # c,c1,c_1,o_2
dihedral_coeff	16 aat  -14.04430  109.77000  105.85000  # c,n4,c,hc
dihedral_coeff	17 aat    0.00000  113.28800  100.31820  # c,o_2,c_1,c1
dihedral_coeff	18 aat    0.00000  113.28800  120.79700  # c,o_2,c_1,o_1
dihedral_coeff	19 aat    0.00000  102.96950  123.42000  # c,oc,cp,cp
dihedral_coeff	20 aat  -15.60700  104.49000  110.77000  # c-,c,c,hc
dihedral_coeff	21 aat    0.00000  104.49000  107.41000  # c-,c,c,o_2
dihedral_coeff	22 aat  -16.16400  112.67000  110.77000  # c1,c,c,hc
dihedral_coeff	23 aat   -0.38010  112.67000  108.52950  # c1,c,c1,c_1
dihedral_coeff	24 aat  -16.16400  112.67000  110.77000  # c1,c,c1,hc
dihedral_coeff	25 aat   -5.36240  108.52950  110.77000  # c_1,c1,c,hc
dihedral_coeff	26 aat    0.00000  113.28800  107.68800  # c_1,o_2,c,hc
dihedral_coeff	27 aat    0.00000  118.90000  118.90000  # cp,cp,cp,cp
dihedral_coeff	28 aat   -4.81410  118.90000  117.94000  # cp,cp,cp,hc
dihedral_coeff	29 aat  -21.02470  118.90000  123.42000  # cp,cp,cp,oc
dihedral_coeff	30 aat    0.00000  102.96950  108.72800  # cp,oc,c,hc
dihedral_coeff	31 aat  -12.56400  110.77000  110.77000  # hc,c,c,hc
dihedral_coeff	32 aat  -18.92630  110.77000  112.13000  # hc,c,c,n4
dihedral_coeff	33 aat    0.00000  110.77000  107.41000  # hc,c,c,o_2
dihedral_coeff	34 aat  -20.20060  110.77000  111.27000  # hc,c,c,oc
dihedral_coeff	35 aat  -20.20060  110.77000  111.27000  # hc,c,c,oh
dihedral_coeff	36 aat  -19.45700  109.67000  115.06000  # hc,c,c-,o-
dihedral_coeff	37 aat  -12.56400  110.77000  110.77000  # hc,c,c1,hc
dihedral_coeff	38 aat  -10.50930  108.72800  105.80000  # hc,c,oh,ho
dihedral_coeff	39 aat  -15.34960  107.73360  123.14510  # hc,c1,c_1,o_1
dihedral_coeff	40 aat    0.00000  107.73360  100.31820  # hc,c1,c_1,o_2
dihedral_coeff	41 aat    0.35980  117.94000  117.94000  # hc,cp,cp,hc
dihedral_coeff	42 aat    4.22960  117.94000  123.42000  # hc,cp,cp,oc
dihedral_coeff	43 aat    0.00000  112.13000  107.41000  # n4,c,c,o_2
dihedral_coeff	44 aat    0.00000  107.41000  111.27000  # o_2,c,c,oc
dihedral_coeff	45 aat    0.00000  107.41000  111.27000  # o_2,c,c,oh

# BondBond13 Coeffs

dihedral_coeff	 1 bb13    0.00000    1.53000    1.53000  # c,c,c,c
dihedral_coeff	 2 bb13    0.00000    1.53000    1.10100  # c,c,c,hc
dihedral_coeff	 3 bb13    0.00000    1.53000    1.43000  # c,c,c,o_2
dihedral_coeff	 4 bb13    0.00000    1.53000    1.23390  # c,c,c-,o-
dihedral_coeff	 5 bb13    0.00000    1.53000    1.53000  # c,c,c1,c
dihedral_coeff	 6 bb13    0.00000    1.53000    1.52020  # c,c,c1,c_1
dihedral_coeff	 7 bb13    0.00000    1.53000    1.10100  # c,c,c1,hc
dihedral_coeff	 8 bb13    0.00000    1.53000    1.51850  # c,c,n4,c
dihedral_coeff	 9 bb13    0.00000    1.53000    1.36830  # c,c,o_2,c_1
dihedral_coeff	10 bb13    0.00000    1.53000    1.37680  # c,c,oc,cp
dihedral_coeff	11 bb13    0.00000    1.53000    0.96500  # c,c,oh,ho
dihedral_coeff	12 bb13    0.00000    1.53000    1.53000  # c,c1,c,c1
dihedral_coeff	13 bb13    0.00000    1.53000    1.10100  # c,c1,c,hc
dihedral_coeff	14 bb13    0.00000    1.53000    1.20200  # c,c1,c_1,o_1
dihedral_coeff	15 bb13    0.00000    1.53000    1.36830  # c,c1,c_1,o_2
dihedral_coeff	16 bb13    0.00000    1.51850    1.10100  # c,n4,c,hc
dihedral_coeff	17 bb13    0.00000    1.43000    1.52020  # c,o_2,c_1,c1
dihedral_coeff	18 bb13    0.00000    1.43000    1.20200  # c,o_2,c_1,o_1
dihedral_coeff	19 bb13    0.00000    1.42000    1.41700  # c,oc,cp,cp
dihedral_coeff	20 bb13    0.00000    1.54830    1.10100  # c-,c,c,hc
dihedral_coeff	21 bb13    0.00000    1.54830    1.43000  # c-,c,c,o_2
dihedral_coeff	22 bb13    0.00000    1.53000    1.10100  # c1,c,c,hc
dihedral_coeff	23 bb13    0.00000    1.53000    1.52020  # c1,c,c1,c_1
dihedral_coeff	24 bb13    0.00000    1.53000    1.10100  # c1,c,c1,hc
dihedral_coeff	25 bb13    0.00000    1.52020    1.10100  # c_1,c1,c,hc
dihedral_coeff	26 bb13    0.00000    1.36830    1.10100  # c_1,o_2,c,hc
dihedral_coeff	27 bb13   53.00000    1.41700    1.41700  # cp,cp,cp,cp
dihedral_coeff	28 bb13   -6.27410    1.41700    1.09820  # cp,cp,cp,hc
dihedral_coeff	29 bb13   -2.24360    1.41700    1.37680  # cp,cp,cp,oc
dihedral_coeff	30 bb13    0.00000    1.37680    1.10100  # cp,oc,c,hc
dihedral_coeff	31 bb13    0.00000    1.10100    1.10100  # hc,c,c,hc
dihedral_coeff	32 bb13    0.00000    1.10100    1.51850  # hc,c,c,n4
dihedral_coeff	33 bb13    0.00000    1.10100    1.43000  # hc,c,c,o_2
dihedral_coeff	34 bb13    0.00000    1.10100    1.42000  # hc,c,c,oc
dihedral_coeff	35 bb13    0.00000    1.10100    1.42000  # hc,c,c,oh
dihedral_coeff	36 bb13    0.00000    1.10100    1.23390  # hc,c,c-,o-
dihedral_coeff	37 bb13    0.00000    1.10100    1.10100  # hc,c,c1,hc
dihedral_coeff	38 bb13    0.00000    1.10100    0.96500  # hc,c,oh,ho
dihedral_coeff	39 bb13    0.00000    1.10100    1.20200  # hc,c1,c_1,o_1
dihedral_coeff	40 bb13    0.00000    1.10100    1.36830  # hc,c1,c_1,o_2
dihedral_coeff	41 bb13   -1.70770    1.09820    1.09820  # hc,cp,cp,hc
dihedral_coeff	42 bb13    2.05170    1.09820    1.37680  # hc,cp,cp,oc
dihedral_coeff	43 bb13    0.00000    1.51850    1.43000  # n4,c,c,o_2
dihedral_coeff	44 bb13    0.00000    1.43000    1.42000  # o_2,c,c,oc
dihedral_coeff	45 bb13    0.00000    1.43000    1.42000  # o_2,c,c,oh

# Improper Coeffs

improper_coeff	 1    0.00000    0.00000  # c,c,c,hc
improper_coeff	 2    0.00000    0.00000  # c,c,c-,hc
improper_coeff	 3    0.00000    0.00000  # c,c,c1,hc
improper_coeff	 4    0.00000    0.00000  # c,c,hc,hc
improper_coeff	 5    0.00000    0.00000  # c,c,hc,o_2
improper_coeff	 6    0.00000    0.00000  # c,c,n4,hc
improper_coeff	 7    0.00000    0.00000  # c,c,oc,hc
improper_coeff	 8    0.00000    0.00000  # c,c,oh,hc
improper_coeff	 9    0.00000    0.00000  # c,c-,hc,hc
improper_coeff	10    0.00000    0.00000  # c,c1,c1,hc
improper_coeff	11    0.00000    0.00000  # c,c1,hc,hc
improper_coeff	12    0.00000    0.00000  # c,hc,hc,hc
improper_coeff	13    0.00000    0.00000  # c,hc,hc,n4
improper_coeff	14    0.00000    0.00000  # c,hc,hc,o_2
improper_coeff	15    0.00000    0.00000  # c,hc,hc,oc
improper_coeff	16    0.00000    0.00000  # c,hc,hc,oh
improper_coeff	17   44.15000    0.00000  # c-,c,o-,o-
improper_coeff	18    0.00000    0.00000  # c1,c,c,c_1
improper_coeff	19    0.00000    0.00000  # c1,c,c,hc
improper_coeff	20    0.00000    0.00000  # c1,c,c_1,hc
improper_coeff	21   46.92640    0.00000  # c_1,c1,o_2,o_1
improper_coeff	22    4.89120    0.00000  # cp,cp,cp,hc
improper_coeff	23   13.04210    0.00000  # cp,cp,cp,oc
improper_coeff	24    0.00000    0.00000  # n4,c,c,c

# AngleAngle Coeffs

improper_coeff	 1 aa   -1.31990   -1.31990    0.11840  112.67000  110.77000  110.77000  # c,c,c,hc
improper_coeff	 2 aa   -0.04140   -1.00330    2.45940  104.49000  110.77000  109.67000  # c,c,c-,hc
improper_coeff	 3 aa   -1.31990   -1.31990    0.11840  112.67000  110.77000  110.77000  # c,c,c1,hc
improper_coeff	 4 aa    0.27380   -0.48250    0.27380  110.77000  110.77000  107.66000  # c,c,hc,hc
improper_coeff	 5 aa    0.00000    0.00000    0.00000  110.77000  107.41000  107.68800  # c,c,hc,o_2
improper_coeff	 6 aa    7.02920    6.02740    4.24400  112.13000  110.77000  105.85000  # c,c,n4,hc
improper_coeff	 7 aa    0.16890    2.59260    3.91770  111.27000  110.77000  108.72800  # c,c,oc,hc
improper_coeff	 8 aa    0.16890    2.59260    3.91770  111.27000  110.77000  108.72800  # c,c,oh,hc
improper_coeff	 9 aa    2.72540   -1.80860    2.72540  109.67000  109.67000  107.66000  # c,c-,hc,hc
improper_coeff	10 aa   -1.31990   -1.31990    0.11840  112.67000  110.77000  110.77000  # c,c1,c1,hc
improper_coeff	11 aa    0.27380   -0.48250    0.27380  110.77000  110.77000  107.66000  # c,c1,hc,hc
improper_coeff	12 aa   -0.31570   -0.31570   -0.31570  107.66000  107.66000  107.66000  # c,hc,hc,hc
improper_coeff	13 aa    3.54750    3.54750    7.33650  107.66000  105.85000  105.85000  # c,hc,hc,n4
improper_coeff	14 aa    0.00000    0.00000    0.00000  107.66000  107.68800  107.68800  # c,hc,hc,o_2
improper_coeff	15 aa    2.42590    2.42590    2.12830  107.66000  108.72800  108.72800  # c,hc,hc,oc
improper_coeff	16 aa    2.42590    2.42590    2.12830  107.66000  108.72800  108.72800  # c,hc,hc,oh
improper_coeff	17 aa    0.00000    0.00000    0.00000  115.06000  115.06000  130.01000  # c-,c,o-,o-
improper_coeff	18 aa    0.00000    0.00000    0.00000  112.67000  108.52950  108.52950  # c1,c,c,c_1
improper_coeff	19 aa   -1.31990   -1.31990    0.11840  112.67000  110.77000  110.77000  # c1,c,c,hc
improper_coeff	20 aa    2.04030   -1.82020    1.08270  108.52950  110.77000  107.73360  # c1,c,c_1,hc
improper_coeff	21 aa    0.00000    0.00000    0.00000  100.31820  123.14510  120.79700  # c_1,c1,o_2,o_1
improper_coeff	22 aa    0.00000    0.00000    0.00000  118.90000  117.94000  117.94000  # cp,cp,cp,hc
improper_coeff	23 aa    0.00000    0.00000    0.00000  118.90000  123.42000  123.42000  # cp,cp,cp,oc
improper_coeff	24 aa   -1.51550   -1.51550   -1.51550  109.77000  109.77000  109.77000  # n4,c,c,c

pair_modify     tail no
kspace_style pppm 1.0e-4
kspace_modify   slab 3.0
neighbor        2.0 bin
neigh_modify    delay 0 every 1 check yes

unfix           1
unfix           2

change_box all z final -50 50
Changing box ...
  orthogonal box = (0 0 -50) to (80.6296 82.864 50)
write_data      Polymer_G42.data
System init for write_data ...
PPPM Kokkos initialization ...
WARNING: System is not charge neutral, net charge = 36
For more information see https://docs.lammps.org/err0029 (src/kspace.cpp:330)
  using 12-bit tables for long-range coulomb
  G vector (1/distance) = 0.18391259
  grid = 24 24 60
  stencil order = 5
  estimated absolute RMS force accuracy = 0.029064965
  estimated relative force accuracy = 8.7528278e-05
  using double precision cuFFT
  3d grid and FFT values/proc = 52142 34560
Generated 78 of 78 mixed pair_coeff terms from sixthpower/sixthpower mixing rule
Neighbor list info ...
  update: every = 1 steps, delay = 0 steps, check = yes
  max neighbors/atom: 2000, page size: 100000
  master list distance cutoff = 14
  ghost atom cutoff = 14
  binsize = 5, bins = 17 17 20
  1 neighbor lists, perpetual/occasional/extra = 1 0 0
  (1) pair lj/class2/coul/long/kk, perpetual
      attributes: full, newton off, kokkos_device
      pair build: full/bin/kk/device
      stencil: full/bin/3d
      bin: kk/device
Total wall time: 1:05:33
