LAMMPS (22 Jul 2025 - Update 4)
KOKKOS mode with Kokkos version 4.6.2 is enabled
  will use up to 1 GPU(s) per node
  using 1 OpenMP thread(s) per MPI task
package kokkos
package kokkos newton off
units           real
atom_style      full
boundary        p p p
comm_style      brick
# newton off
special_bonds   lj/coul 0.0 0.0 1.0
bond_style      class2
angle_style     class2
dihedral_style  class2
improper_style  class2
pair_style      soft 10.0
read_data       setup.data
Reading data file ...
  orthogonal box = (0 0 -160) to (80.6296 82.864 160)
  1 by 1 by 1 MPI processor grid
  reading atoms ...
  35235 atoms
  scanning bonds ...
  4 = max bonds/atom
  scanning angles ...
  18 = max angles/atom
  scanning dihedrals ...
  39 = max dihedrals/atom
  scanning impropers ...
  16 = max impropers/atom
  orthogonal box = (0 0 -160) to (80.6296 82.864 160)
  1 by 1 by 1 MPI processor grid
  reading bonds ...
  35700 bonds
  reading angles ...
  65940 angles
  reading dihedrals ...
  92955 dihedrals
  reading impropers ...
  38235 impropers
Finding 1-2 1-3 1-4 neighbors ...
  special bond factors lj:    0        0        1       
  special bond factors coul:  0        0        1       
     4 = max # of 1-2 neighbors
    12 = max # of 1-3 neighbors
    16 = max # of special neighbors
  special bonds CPU = 0.042 seconds
  read_data CPU = 1.121 seconds
include         setup.params
# LAMMPS parameters created by EMC v9.4.4, build Jun 30 2026 09:51:48

# Variables

variable	seed		index	555666
variable	ntotal		index	35235
variable	fshape		index	1
variable	output		index	setup
variable	field		index	cff/pcff/pcff
variable	location1	index	~/Apps/EMC/field/
variable	nav		index	0.6022141179
variable	temperature	index	300
variable	radius		index	3.5
variable	nrelax		index	1000
variable	weight_nonbond	index	0.0001
variable	weight_bond	index	0.0001
variable	weight_focus	index	1
variable	cutoff		index	12
variable	charge_cutoff	index	12
variable	kappa		index	1
variable	density1	index	0.730689531559
variable	lprevious	index	0
variable	lphase		index	80.6296
variable	f_R		index	1
variable	chem_ba		index	*CC(*)C(=O)OCCCC
variable	chem_atac	index	*CC(*)C(=O)OCC[N+](C)(C)C
variable	chem_pea	index	*CC(*)C(=O)OCCOc1ccccc1
variable	chem_t		index	*C
variable	lg_ba		index	21
variable	lg_atac		index	27
variable	lg_pea		index	26
variable	lg_t		index	4
variable	norm_R		index	1
variable	l_R		index	2349
variable	mg_ba		index	128.17249
variable	mg_atac		index	158.22222
variable	mg_pea		index	192.21649
variable	mg_t		index	15.03506
variable	m_R		index	15325.39691
variable	norm		index	35235
variable	n_R		index	4
variable	mtotal		index	229880.95365
variable	nphase1		index	35235
variable	mphase1		index	229880.95365
variable	vphase1		index	522419.25098
variable	lbox		index	80.539029258
variable	lphase1		index	80.539029258
variable	lxx		index	80.6296
variable	lyy		index	82.864
variable	lzz		index	80
variable	lzy		index	0
variable	lzx		index	0
variable	lyx		index	0
variable	vtotal		index	534503.293952
variable	nl_R		index	15

# Types

variable	type_c		index	1
variable	type_c1		index	2
variable	type_c_1	index	3
variable	type_cp		index	4
variable	type_hc		index	5
variable	type_n4		index	6
variable	type_o_1	index	7
variable	type_o_2	index	8
variable	type_oc		index	9

variable	type_bond_c_c	index	1
variable	type_bond_c_c1	index	2
variable	type_bond_c_hc	index	3
variable	type_bond_c_n4	index	4
variable	type_bond_c_o_2	index	5
variable	type_bond_c_oc	index	6
variable	type_bond_c1_c_1 index	7
variable	type_bond_c1_hc	index	8
variable	type_bond_c_1_o_1 index	9
variable	type_bond_c_1_o_2 index	10
variable	type_bond_cp_cp	index	11
variable	type_bond_cp_hc	index	12
variable	type_bond_cp_oc	index	13

variable	type_angle_c_c_c index	1
variable	type_angle_c_c_c1 index	2
variable	type_angle_c_c_hc index	3
variable	type_angle_c_c_n4 index	4
variable	type_angle_c_c_o_2 index	5
variable	type_angle_c_c_oc index	6
variable	type_angle_c_c1_c index	7
variable	type_angle_c_c1_c_1 index	8
variable	type_angle_c_c1_hc index	9
variable	type_angle_c_n4_c index	10
variable	type_angle_c_o_2_c_1 index	11
variable	type_angle_c_oc_cp index	12
variable	type_angle_c1_c_c1 index	13
variable	type_angle_c1_c_hc index	14
variable	type_angle_c1_c_1_o_1 index	15
variable	type_angle_c1_c_1_o_2 index	16
variable	type_angle_c_1_c1_hc index	17
variable	type_angle_cp_cp_cp index	18
variable	type_angle_cp_cp_hc index	19
variable	type_angle_cp_cp_oc index	20
variable	type_angle_hc_c_hc index	21
variable	type_angle_hc_c_n4 index	22
variable	type_angle_hc_c_o_2 index	23
variable	type_angle_hc_c_oc index	24
variable	type_angle_o_1_c_1_o_2 index	25

# Clusters

variable	n0_R		index	1
variable	n1_R		index	15
variable	nl_R		index	15

# Flags

variable	flag_charged	index	1

# Masses

mass		1    12.01115  # c
mass		2    12.01115  # c1
mass		3    12.01115  # c_1
mass		4    12.01115  # cp
mass		5     1.00797  # hc
mass		6    14.00670  # n4
mass		7    15.99940  # o_1
mass		8    15.99940  # o_2
mass		9    15.99940  # oc

# Potentials

pair_style	lj/class2/coul/long ${cutoff} ${charge_cutoff}  # 9.5
pair_style	lj/class2/coul/long 12 ${charge_cutoff}  
pair_style	lj/class2/coul/long 12 12  
bond_style	class2
angle_style	class2
dihedral_style	class2
improper_style	class2
pair_modify	mix sixthpower tail yes
special_bonds	lj/coul 0 0 1

# Pair Coeffs

pair_coeff	 1  1    0.05400    4.01000  # c,c
pair_coeff	 2  2    0.05400    4.01000  # c1,c1
pair_coeff	 3  3    0.12000    3.81000  # c_1,c_1
pair_coeff	 4  4    0.06400    4.01000  # cp,cp
pair_coeff	 5  5    0.02000    2.99500  # hc,hc
pair_coeff	 6  6    0.06500    3.26200  # n4,n4
pair_coeff	 7  7    0.26700    3.30000  # o_1,o_1
pair_coeff	 8  8    0.24000    3.42000  # o_2,o_2
pair_coeff	 9  9    0.24000    3.53500  # oc,oc

# Bond Coeffs

bond_coeff	 1    1.53000  299.67000 -501.77000  679.81000  # c,c
bond_coeff	 2    1.53000  299.67000 -501.77000  679.81000  # c,c1
bond_coeff	 3    1.10100  345.00000 -691.89000  844.60000  # c,hc
bond_coeff	 4    1.51850  293.17000 -603.78820  629.69000  # c,n4
bond_coeff	 5    1.43000  326.72730 -608.53060  689.03330  # c,o_2
bond_coeff	 6    1.42000  400.39540 -835.19510 1313.01420  # c,oc
bond_coeff	 7    1.52020  253.70670 -423.03700  396.90000  # c1,c_1
bond_coeff	 8    1.10100  345.00000 -691.89000  844.60000  # c1,hc
bond_coeff	 9    1.20200  851.14030 -1918.48820 2160.76590  # c_1,o_1
bond_coeff	10    1.36830  367.14810 -794.79080 1055.23190  # c_1,o_2
bond_coeff	11    1.41700  470.83610 -627.61790 1327.63450  # cp,cp
bond_coeff	12    1.09820  372.82510 -803.45260  894.31730  # cp,hc
bond_coeff	13    1.37680  428.87980 -738.23510 1114.96550  # cp,oc

# Angle Coeffs

angle_coeff	 1  112.67000   39.51600   -7.44300   -9.55830  # c,c,c
angle_coeff	 2  112.67000   39.51600   -7.44300   -9.55830  # c,c,c1
angle_coeff	 3  110.77000   41.45300  -10.60400    5.12900  # c,c,hc
angle_coeff	 4  112.13000   66.45200    4.86940   37.78600  # c,c,n4
angle_coeff	 5  107.41000   63.39070  -13.45130    1.66500  # c,c,o_2
angle_coeff	 6  111.27000   54.53810   -8.36420  -13.08380  # c,c,oc
angle_coeff	 7  112.67000   39.51600   -7.44300   -9.55830  # c,c1,c
angle_coeff	 8  108.52950   51.97470   -9.48510  -10.99850  # c,c1,c_1
angle_coeff	 9  110.77000   41.45300  -10.60400    5.12900  # c,c1,hc
angle_coeff	10  109.77000   44.82200   -3.91320    0.00000  # c,n4,c
angle_coeff	11  113.28800   61.28680  -28.97860    7.99290  # c,o_2,c_1
angle_coeff	12  102.96950   38.97390   -6.25950   -8.17100  # c,oc,cp
angle_coeff	13  112.67000   39.51600   -7.44300   -9.55830  # c1,c,c1
angle_coeff	14  110.77000   41.45300  -10.60400    5.12900  # c1,c,hc
angle_coeff	15  123.14510   55.54310  -17.21230    0.13480  # c1,c_1,o_1
angle_coeff	16  100.31820   38.86310   -3.83230   -7.98020  # c1,c_1,o_2
angle_coeff	17  107.73360   40.60990  -28.81210    0.00000  # c_1,c1,hc
angle_coeff	18  118.90000   61.02260  -34.99310    0.00000  # cp,cp,cp
angle_coeff	19  117.94000   35.15580  -12.46820    0.00000  # cp,cp,hc
angle_coeff	20  123.42000   73.67810  -21.67870    0.00000  # cp,cp,oc
angle_coeff	21  107.66000   39.64100  -12.92100   -2.43180  # hc,c,hc
angle_coeff	22  105.85000   72.26300  -28.19230    0.00000  # hc,c,n4
angle_coeff	23  107.68800   65.48010  -10.34980    5.88660  # hc,c,o_2
angle_coeff	24  108.72800   58.54460  -10.80880  -12.40060  # hc,c,oc
angle_coeff	25  120.79700   95.34460  -32.28690    6.37780  # o_1,c_1,o_2

# BondBond Coeffs

angle_coeff	 1 bb    0.00000    1.53000    1.53000  # c,c,c
angle_coeff	 2 bb    0.00000    1.53000    1.53000  # c,c,c1
angle_coeff	 3 bb    3.38720    1.53000    1.10100  # c,c,hc
angle_coeff	 4 bb   16.42800    1.53000    1.51850  # c,c,n4
angle_coeff	 5 bb   23.26470    1.53000    1.43000  # c,c,o_2
angle_coeff	 6 bb   11.43180    1.53000    1.42000  # c,c,oc
angle_coeff	 7 bb    0.00000    1.53000    1.53000  # c,c1,c
angle_coeff	 8 bb    5.41990    1.53000    1.52020  # c,c1,c_1
angle_coeff	 9 bb    3.38720    1.53000    1.10100  # c,c1,hc
angle_coeff	10 bb   14.95900    1.51850    1.51850  # c,n4,c
angle_coeff	11 bb   45.45030    1.43000    1.36830  # c,o_2,c_1
angle_coeff	12 bb    0.00000    1.42000    1.37680  # c,oc,cp
angle_coeff	13 bb    0.00000    1.53000    1.53000  # c1,c,c1
angle_coeff	14 bb    3.38720    1.53000    1.10100  # c1,c,hc
angle_coeff	15 bb   46.06850    1.52020    1.20200  # c1,c_1,o_1
angle_coeff	16 bb   19.10690    1.52020    1.36830  # c1,c_1,o_2
angle_coeff	17 bb    0.71150    1.52020    1.10100  # c_1,c1,hc
angle_coeff	18 bb   68.28560    1.41700    1.41700  # cp,cp,cp
angle_coeff	19 bb    1.07950    1.41700    1.09820  # cp,cp,hc
angle_coeff	20 bb   48.47540    1.41700    1.37680  # cp,cp,oc
angle_coeff	21 bb    5.33160    1.10100    1.10100  # hc,c,hc
angle_coeff	22 bb   -1.47970    1.10100    1.51850  # hc,c,n4
angle_coeff	23 bb    5.64540    1.10100    1.43000  # hc,c,o_2
angle_coeff	24 bb   23.19790    1.10100    1.42000  # hc,c,oc
angle_coeff	25 bb  121.48800    1.20200    1.36830  # o_1,c_1,o_2

# BondAngle Coeffs

angle_coeff	 1 ba    8.01600    8.01600    1.53000    1.53000  # c,c,c
angle_coeff	 2 ba    8.01600    8.01600    1.53000    1.53000  # c,c,c1
angle_coeff	 3 ba   20.75400   11.42100    1.53000    1.10100  # c,c,hc
angle_coeff	 4 ba   14.06200   49.77300    1.53000    1.51850  # c,c,n4
angle_coeff	 5 ba   23.39200   47.94870    1.53000    1.43000  # c,c,o_2
angle_coeff	 6 ba    2.68680   20.40330    1.53000    1.42000  # c,c,oc
angle_coeff	 7 ba    8.01600    8.01600    1.53000    1.53000  # c,c1,c
angle_coeff	 8 ba   18.16780   15.87580    1.53000    1.52020  # c,c1,c_1
angle_coeff	 9 ba   20.75400   11.42100    1.53000    1.10100  # c,c1,hc
angle_coeff	10 ba   23.09300   23.09300    1.51850    1.51850  # c,n4,c
angle_coeff	11 ba   41.91160   46.46080    1.43000    1.36830  # c,o_2,c_1
angle_coeff	12 ba    0.00000    0.00000    1.42000    1.37680  # c,oc,cp
angle_coeff	13 ba    8.01600    8.01600    1.53000    1.53000  # c1,c,c1
angle_coeff	14 ba   20.75400   11.42100    1.53000    1.10100  # c1,c,hc
angle_coeff	15 ba   34.99820   37.12980    1.52020    1.20200  # c1,c_1,o_1
angle_coeff	16 ba    1.34350    4.69780    1.52020    1.36830  # c1,c_1,o_2
angle_coeff	17 ba   12.46320    9.17650    1.52020    1.10100  # c_1,c1,hc
angle_coeff	18 ba   28.87080   28.87080    1.41700    1.41700  # cp,cp,cp
angle_coeff	19 ba   20.00330   24.21830    1.41700    1.09820  # cp,cp,hc
angle_coeff	20 ba   58.47900  107.68060    1.41700    1.37680  # cp,cp,oc
angle_coeff	21 ba   18.10300   18.10300    1.10100    1.10100  # hc,c,hc
angle_coeff	22 ba   15.88200   50.01800    1.10100    1.51850  # hc,c,n4
angle_coeff	23 ba    8.68640   57.49750    1.10100    1.43000  # hc,c,o_2
angle_coeff	24 ba    4.61890   55.32700    1.10100    1.42000  # hc,c,oc
angle_coeff	25 ba   76.26140   71.87610    1.20200    1.36830  # o_1,c_1,o_2

# Dihedral Coeffs

dihedral_coeff	 1    0.00000    0.00000    0.05140    0.00000   -0.14300    0.00000  # c,c,c,c
dihedral_coeff	 2    0.00000    0.00000    0.03160    0.00000   -0.16810    0.00000  # c,c,c,hc
dihedral_coeff	 3    0.00000    0.00000    0.00000    0.00000   -0.25000    0.00000  # c,c,c,o_2
dihedral_coeff	 4    0.00000    0.00000    0.05140    0.00000   -0.14300    0.00000  # c,c,c1,c
dihedral_coeff	 5    0.09720    0.00000    0.07220    0.00000   -0.25810    0.00000  # c,c,c1,c_1
dihedral_coeff	 6    0.00000    0.00000    0.03160    0.00000   -0.16810    0.00000  # c,c,c1,hc
dihedral_coeff	 7    0.70770    0.00000   -0.37440    0.00000   -0.19140    0.00000  # c,c,n4,c
dihedral_coeff	 8    0.00000    0.00000    0.00000    0.00000   -0.19320    0.00000  # c,c,o_2,c_1
dihedral_coeff	 9    0.00000    0.00000    0.00000    0.00000    0.13000  180.00000  # c,c,oc,cp
dihedral_coeff	10    0.00000    0.00000    0.05140    0.00000   -0.14300    0.00000  # c,c1,c,c1
dihedral_coeff	11    0.00000    0.00000    0.03160    0.00000   -0.16810    0.00000  # c,c1,c,hc
dihedral_coeff	12    0.04420    0.00000    0.02920    0.00000    0.05620    0.00000  # c,c1,c_1,o_1
dihedral_coeff	13    1.83410    0.00000    2.06030    0.00000   -0.01950    0.00000  # c,c1,c_1,o_2
dihedral_coeff	14    0.36240    0.00000    0.10120    0.00000   -0.24860    0.00000  # c,n4,c,hc
dihedral_coeff	15   -2.55940    0.00000    2.20130    0.00000    0.03250    0.00000  # c,o_2,c_1,c1
dihedral_coeff	16    0.00000    0.00000    2.20890    0.00000    0.00000    0.00000  # c,o_2,c_1,o_1
dihedral_coeff	17    0.00000    0.00000    1.50000    0.00000    0.00000    0.00000  # c,oc,cp,cp
dihedral_coeff	18    0.00000    0.00000    0.03160    0.00000   -0.16810    0.00000  # c1,c,c,hc
dihedral_coeff	19    0.09720    0.00000    0.07220    0.00000   -0.25810    0.00000  # c1,c,c1,c_1
dihedral_coeff	20    0.00000    0.00000    0.03160    0.00000   -0.16810    0.00000  # c1,c,c1,hc
dihedral_coeff	21   -0.02280    0.00000    0.02800    0.00000   -0.18630    0.00000  # c_1,c1,c,hc
dihedral_coeff	22    0.00000    0.00000    0.00000    0.00000   -0.19320    0.00000  # c_1,o_2,c,hc
dihedral_coeff	23    8.36670    0.00000    1.19320    0.00000    0.00000    0.00000  # cp,cp,cp,cp
dihedral_coeff	24    0.00000    0.00000    3.96610    0.00000    0.00000    0.00000  # cp,cp,cp,hc
dihedral_coeff	25    0.00000    0.00000    4.84980    0.00000    0.00000    0.00000  # cp,cp,cp,oc
dihedral_coeff	26    0.95130    0.00000    0.11550    0.00000    0.07200    0.00000  # cp,oc,c,hc
dihedral_coeff	27   -0.14320    0.00000    0.06170    0.00000   -0.10830    0.00000  # hc,c,c,hc
dihedral_coeff	28   -0.21790    0.00000   -0.41270    0.00000   -0.12520    0.00000  # hc,c,c,n4
dihedral_coeff	29    0.00000    0.00000    0.00000    0.00000   -0.25000    0.00000  # hc,c,c,o_2
dihedral_coeff	30   -0.14350    0.00000    0.25300    0.00000   -0.09050    0.00000  # hc,c,c,oc
dihedral_coeff	31   -0.14320    0.00000    0.06170    0.00000   -0.10830    0.00000  # hc,c,c1,hc
dihedral_coeff	32   -0.18040    0.00000    0.00120    0.00000    0.03710    0.00000  # hc,c1,c_1,o_1
dihedral_coeff	33   -0.63590    0.00000    1.48070    0.00000   -0.04380    0.00000  # hc,c1,c_1,o_2
dihedral_coeff	34    0.00000    0.00000    1.87690    0.00000    0.00000    0.00000  # hc,cp,cp,hc
dihedral_coeff	35    0.00000    0.00000    1.72340    0.00000    0.00000    0.00000  # hc,cp,cp,oc
dihedral_coeff	36    0.00000    0.00000    0.00000    0.00000    0.15800  180.00000  # n4,c,c,o_2
dihedral_coeff	37    0.00000    0.00000    0.00000    0.00000    0.15800  180.00000  # o_2,c,c,oc

# MiddleBondTorsion Coeffs

dihedral_coeff	 1 mbt  -17.78700   -7.18770    0.00000    1.53000  # c,c,c,c
dihedral_coeff	 2 mbt  -14.87900   -3.65810   -0.31380    1.53000  # c,c,c,hc
dihedral_coeff	 3 mbt    0.00000    0.00000    0.00000    1.53000  # c,c,c,o_2
dihedral_coeff	 4 mbt  -17.78700   -7.18770    0.00000    1.53000  # c,c,c1,c
dihedral_coeff	 5 mbt   -1.59450    0.22670   -0.69110    1.53000  # c,c,c1,c_1
dihedral_coeff	 6 mbt  -14.87900   -3.65810   -0.31380    1.53000  # c,c,c1,hc
dihedral_coeff	 7 mbt    6.25790   -5.08180    6.05110    1.51850  # c,c,n4,c
dihedral_coeff	 8 mbt   -5.43500    0.00000    0.00000    1.43000  # c,c,o_2,c_1
dihedral_coeff	 9 mbt    0.00000    0.00000    0.00000    1.42000  # c,c,oc,cp
dihedral_coeff	10 mbt  -17.78700   -7.18770    0.00000    1.53000  # c,c1,c,c1
dihedral_coeff	11 mbt  -14.87900   -3.65810   -0.31380    1.53000  # c,c1,c,hc
dihedral_coeff	12 mbt    0.33880   -0.10960    0.12190    1.52020  # c,c1,c_1,o_1
dihedral_coeff	13 mbt  -17.32800   -5.79000   -3.21140    1.52020  # c,c1,c_1,o_2
dihedral_coeff	14 mbt    0.76300    2.63030   -2.59740    1.51850  # c,n4,c,hc
dihedral_coeff	15 mbt    1.34450    3.55150   -4.92020    1.36830  # c,o_2,c_1,c1
dihedral_coeff	16 mbt    4.26000    0.00000    0.00000    1.36830  # c,o_2,c_1,o_1
dihedral_coeff	17 mbt    0.00000    0.00000    0.00000    1.37680  # c,oc,cp,cp
dihedral_coeff	18 mbt  -14.87900   -3.65810   -0.31380    1.53000  # c1,c,c,hc
dihedral_coeff	19 mbt   -1.59450    0.22670   -0.69110    1.53000  # c1,c,c1,c_1
dihedral_coeff	20 mbt  -14.87900   -3.65810   -0.31380    1.53000  # c1,c,c1,hc
dihedral_coeff	21 mbt   -3.50390    1.24580   -0.76100    1.53000  # c_1,c1,c,hc
dihedral_coeff	22 mbt    0.00000    0.00000    0.00000    1.43000  # c_1,o_2,c,hc
dihedral_coeff	23 mbt   27.59890   -2.31200    0.00000    1.41700  # cp,cp,cp,cp
dihedral_coeff	24 mbt    0.00000   -1.15210    0.00000    1.41700  # cp,cp,cp,hc
dihedral_coeff	25 mbt    0.00000    4.82550    0.00000    1.41700  # cp,cp,cp,oc
dihedral_coeff	26 mbt    0.00000    0.00000    0.00000    1.42000  # cp,oc,c,hc
dihedral_coeff	27 mbt  -14.26100   -0.53220   -0.48640    1.53000  # hc,c,c,hc
dihedral_coeff	28 mbt   -9.88260   -3.71380   -0.10220    1.53000  # hc,c,c,n4
dihedral_coeff	29 mbt    0.00000    0.00000    0.00000    1.53000  # hc,c,c,o_2
dihedral_coeff	30 mbt  -16.79750   -1.22960   -0.27500    1.53000  # hc,c,c,oc
dihedral_coeff	31 mbt  -14.26100   -0.53220   -0.48640    1.53000  # hc,c,c1,hc
dihedral_coeff	32 mbt    0.23590    0.91390    0.95940    1.52020  # hc,c1,c_1,o_1
dihedral_coeff	33 mbt  -13.76860   -2.59590    1.19340    1.52020  # hc,c1,c_1,o_2
dihedral_coeff	34 mbt    0.00000    4.82280    0.00000    1.41700  # hc,cp,cp,hc
dihedral_coeff	35 mbt    0.00000    5.54320    0.00000    1.41700  # hc,cp,cp,oc
dihedral_coeff	36 mbt    0.00000    0.00000    0.00000    1.53000  # n4,c,c,o_2
dihedral_coeff	37 mbt    0.00000    0.00000    0.00000    1.53000  # o_2,c,c,oc

# EndBondTorsion Coeffs

dihedral_coeff	 1 ebt   -0.07320    0.00000    0.00000   -0.07320    0.00000    0.00000    1.53000    1.53000  # c,c,c,c
dihedral_coeff	 2 ebt    0.24860    0.24220   -0.09250    0.08140    0.05910    0.22190    1.53000    1.10100  # c,c,c,hc
dihedral_coeff	 3 ebt    0.00000    0.00000    0.00000    0.00000    0.00000    0.00000    1.53000    1.43000  # c,c,c,o_2
dihedral_coeff	 4 ebt   -0.07320    0.00000    0.00000   -0.07320    0.00000    0.00000    1.53000    1.53000  # c,c,c1,c
dihedral_coeff	 5 ebt    0.00620   -0.00020    0.00360    0.00550    0.00600   -0.00090    1.53000    1.52020  # c,c,c1,c_1
dihedral_coeff	 6 ebt    0.24860    0.24220   -0.09250    0.08140    0.05910    0.22190    1.53000    1.10100  # c,c,c1,hc
dihedral_coeff	 7 ebt    0.00000    0.00000    0.00000    0.00000    0.00000    0.00000    1.53000    1.51850  # c,c,n4,c
dihedral_coeff	 8 ebt    0.00000    0.00000    0.00000    0.00000    0.00000    0.00000    1.53000    1.36830  # c,c,o_2,c_1
dihedral_coeff	 9 ebt    0.00000    0.00000    0.00000    0.00000    0.00000    0.00000    1.53000    1.37680  # c,c,oc,cp
dihedral_coeff	10 ebt   -0.07320    0.00000    0.00000   -0.07320    0.00000    0.00000    1.53000    1.53000  # c,c1,c,c1
dihedral_coeff	11 ebt    0.24860    0.24220   -0.09250    0.08140    0.05910    0.22190    1.53000    1.10100  # c,c1,c,hc
dihedral_coeff	12 ebt    0.26540    0.05030    0.10460   -0.28100    0.08160   -0.15220    1.53000    1.20200  # c,c1,c_1,o_1
dihedral_coeff	13 ebt    0.00000    0.00000    0.00000    0.00000    0.00000    0.00000    1.53000    1.36830  # c,c1,c_1,o_2
dihedral_coeff	14 ebt    0.00000    0.00000    0.00000    0.00000    0.00000    0.00000    1.51850    1.10100  # c,n4,c,hc
dihedral_coeff	15 ebt    0.00000    0.00000    0.00000    0.00000    0.00000    0.00000    1.43000    1.52020  # c,o_2,c_1,c1
dihedral_coeff	16 ebt    0.00000    0.00000    0.00000    0.00000    0.00000    0.00000    1.43000    1.20200  # c,o_2,c_1,o_1
dihedral_coeff	17 ebt    0.00000    0.00000    0.00000    0.00000    0.00000    0.00000    1.42000    1.41700  # c,oc,cp,cp
dihedral_coeff	18 ebt    0.24860    0.24220   -0.09250    0.08140    0.05910    0.22190    1.53000    1.10100  # c1,c,c,hc
dihedral_coeff	19 ebt    0.00620   -0.00020    0.00360    0.00550    0.00600   -0.00090    1.53000    1.52020  # c1,c,c1,c_1
dihedral_coeff	20 ebt    0.24860    0.24220   -0.09250    0.08140    0.05910    0.22190    1.53000    1.10100  # c1,c,c1,hc
dihedral_coeff	21 ebt   -0.02040    0.36280   -0.44260   -0.00970   -0.03150   -0.07550    1.52020    1.10100  # c_1,c1,c,hc
dihedral_coeff	22 ebt    0.00000    0.00000    0.00000    0.00000    0.00000    0.00000    1.36830    1.10100  # c_1,o_2,c,hc
dihedral_coeff	23 ebt   -0.11850    6.32040    0.00000   -0.11850    6.32040    0.00000    1.41700    1.41700  # cp,cp,cp,cp
dihedral_coeff	24 ebt    0.00000   -6.89580    0.00000    0.00000   -0.46690    0.00000    1.41700    1.09820  # cp,cp,cp,hc
dihedral_coeff	25 ebt    0.00000    0.26550    0.00000    0.00000    4.89050    0.00000    1.41700    1.37680  # cp,cp,cp,oc
dihedral_coeff	26 ebt    0.00000    0.00000    0.00000    0.00000    0.00000    0.00000    1.37680    1.10100  # cp,oc,c,hc
dihedral_coeff	27 ebt    0.21300    0.31200    0.07770    0.21300    0.31200    0.07770    1.10100    1.10100  # hc,c,c,hc
dihedral_coeff	28 ebt    0.00000    0.00000    0.00000    0.00000    0.00000    0.00000    1.10100    1.51850  # hc,c,c,n4
dihedral_coeff	29 ebt    0.00000    0.00000    0.00000    0.00000    0.00000    0.00000    1.10100    1.43000  # hc,c,c,o_2
dihedral_coeff	30 ebt    0.96810    0.95510    0.04360    0.59030    0.66690    0.85840    1.10100    1.42000  # hc,c,c,oc
dihedral_coeff	31 ebt    0.21300    0.31200    0.07770    0.21300    0.31200    0.07770    1.10100    1.10100  # hc,c,c1,hc
dihedral_coeff	32 ebt    1.21430    0.28310    0.39160   -0.22980    0.03540    0.38530    1.10100    1.20200  # hc,c1,c_1,o_1
dihedral_coeff	33 ebt    0.00000    0.00000    0.00000    0.00000    0.00000    0.00000    1.10100    1.36830  # hc,c1,c_1,o_2
dihedral_coeff	34 ebt    0.00000   -0.68900    0.00000    0.00000   -0.68900    0.00000    1.09820    1.09820  # hc,cp,cp,hc
dihedral_coeff	35 ebt    0.00000   -1.58670    0.00000    0.00000    4.26410    0.00000    1.09820    1.37680  # hc,cp,cp,oc
dihedral_coeff	36 ebt    0.00000    0.00000    0.00000    0.00000    0.00000    0.00000    1.51850    1.43000  # n4,c,c,o_2
dihedral_coeff	37 ebt    0.00000    0.00000    0.00000    0.00000    0.00000    0.00000    1.43000    1.42000  # o_2,c,c,oc

# AngleTorsion Coeffs

dihedral_coeff	 1 at    0.38860   -0.31390    0.13890    0.38860   -0.31390    0.13890  112.67000  112.67000  # c,c,c,c
dihedral_coeff	 2 at   -0.24540    0.00000   -0.11360    0.31130    0.45160   -0.19880  112.67000  110.77000  # c,c,c,hc
dihedral_coeff	 3 at    0.00000    0.00000    0.00000    0.00000    0.00000    0.00000  112.67000  107.41000  # c,c,c,o_2
dihedral_coeff	 4 at    0.38860   -0.31390    0.13890    0.38860   -0.31390    0.13890  112.67000  112.67000  # c,c,c1,c
dihedral_coeff	 5 at   -0.26070    0.32030   -0.22830    0.05150   -0.06740   -0.04740  112.67000  108.52950  # c,c,c1,c_1
dihedral_coeff	 6 at   -0.24540    0.00000   -0.11360    0.31130    0.45160   -0.19880  112.67000  110.77000  # c,c,c1,hc
dihedral_coeff	 7 at   -1.28770    4.80560    1.14810   -3.76820    2.74640   -1.62720  112.13000  109.77000  # c,c,n4,c
dihedral_coeff	 8 at    0.00000    0.00000    0.00000    0.00000    0.00000    0.00000  107.41000  113.28800  # c,c,o_2,c_1
dihedral_coeff	 9 at    0.00000    0.00000    0.00000    0.00000    0.00000    0.00000  111.27000  102.96950  # c,c,oc,cp
dihedral_coeff	10 at    0.38860   -0.31390    0.13890    0.38860   -0.31390    0.13890  112.67000  112.67000  # c,c1,c,c1
dihedral_coeff	11 at   -0.24540    0.00000   -0.11360    0.31130    0.45160   -0.19880  112.67000  110.77000  # c,c1,c,hc
dihedral_coeff	12 at    0.08850   -1.37030   -0.54520    0.67500    0.59650    0.67250  108.52950  123.14510  # c,c1,c_1,o_1
dihedral_coeff	13 at    0.00000    0.00000    0.00000    0.00000    0.00000    0.00000  108.52950  100.31820  # c,c1,c_1,o_2
dihedral_coeff	14 at    1.68400    0.40870    0.42930   -0.08390    1.54770   -0.22840  109.77000  105.85000  # c,n4,c,hc
dihedral_coeff	15 at    0.00000    0.00000    0.00000    0.00000    0.00000    0.00000  113.28800  100.31820  # c,o_2,c_1,c1
dihedral_coeff	16 at    0.00000    0.00000    0.00000    0.00000    0.00000    0.00000  113.28800  120.79700  # c,o_2,c_1,o_1
dihedral_coeff	17 at    0.00000    0.00000    0.00000    0.00000    0.00000    0.00000  102.96950  123.42000  # c,oc,cp,cp
dihedral_coeff	18 at   -0.24540    0.00000   -0.11360    0.31130    0.45160   -0.19880  112.67000  110.77000  # c1,c,c,hc
dihedral_coeff	19 at   -0.26070    0.32030   -0.22830    0.05150   -0.06740   -0.04740  112.67000  108.52950  # c1,c,c1,c_1
dihedral_coeff	20 at   -0.24540    0.00000   -0.11360    0.31130    0.45160   -0.19880  112.67000  110.77000  # c1,c,c1,hc
dihedral_coeff	21 at   -0.74660   -0.94480   -0.63210    0.01620    1.42110   -1.40920  108.52950  110.77000  # c_1,c1,c,hc
dihedral_coeff	22 at    0.00000    0.00000    0.00000    0.00000    0.00000    0.00000  113.28800  107.68800  # c_1,o_2,c,hc
dihedral_coeff	23 at    1.97670    1.02390    0.00000    1.97670    1.02390    0.00000  118.90000  118.90000  # cp,cp,cp,cp
dihedral_coeff	24 at    0.00000    2.50140    0.00000    0.00000    2.71470    0.00000  118.90000  117.94000  # cp,cp,cp,hc
dihedral_coeff	25 at    0.00000   10.01550    0.00000    0.00000    1.74040    0.00000  118.90000  123.42000  # cp,cp,cp,oc
dihedral_coeff	26 at    0.00000    0.00000    0.00000    0.00000    0.00000    0.00000  102.96950  108.72800  # cp,oc,c,hc
dihedral_coeff	27 at   -0.80850    0.55690   -0.24660   -0.80850    0.55690   -0.24660  110.77000  110.77000  # hc,c,c,hc
dihedral_coeff	28 at   -3.41090    0.64760   -0.95840   -2.86940    1.61720   -1.46270  110.77000  112.13000  # hc,c,c,n4
dihedral_coeff	29 at    0.00000    0.00000    0.00000    0.00000    0.00000    0.00000  110.77000  107.41000  # hc,c,c,o_2
dihedral_coeff	30 at    2.36680    2.49200   -1.01220   -0.18920    0.49180    0.72730  110.77000  111.27000  # hc,c,c,oc
dihedral_coeff	31 at   -0.80850    0.55690   -0.24660   -0.80850    0.55690   -0.24660  110.77000  110.77000  # hc,c,c1,hc
dihedral_coeff	32 at    9.12990   -0.48470    0.35820   -1.49460    0.73080   -0.20830  107.73360  123.14510  # hc,c1,c_1,o_1
dihedral_coeff	33 at    0.00000    0.00000    0.00000    0.00000    0.00000    0.00000  107.73360  100.31820  # hc,c1,c_1,o_2
dihedral_coeff	34 at    0.00000    2.45010    0.00000    0.00000    2.45010    0.00000  117.94000  117.94000  # hc,cp,cp,hc
dihedral_coeff	35 at    0.00000    1.87290    0.00000    0.00000    2.57060    0.00000  117.94000  123.42000  # hc,cp,cp,oc
dihedral_coeff	36 at    0.00000    0.00000    0.00000    0.00000    0.00000    0.00000  112.13000  107.41000  # n4,c,c,o_2
dihedral_coeff	37 at    0.00000    0.00000    0.00000    0.00000    0.00000    0.00000  107.41000  111.27000  # o_2,c,c,oc

# AngleAngleTorsion Coeffs

dihedral_coeff	 1 aat  -22.04500  112.67000  112.67000  # c,c,c,c
dihedral_coeff	 2 aat  -16.16400  112.67000  110.77000  # c,c,c,hc
dihedral_coeff	 3 aat    0.00000  112.67000  107.41000  # c,c,c,o_2
dihedral_coeff	 4 aat  -22.04500  112.67000  112.67000  # c,c,c1,c
dihedral_coeff	 5 aat   -0.38010  112.67000  108.52950  # c,c,c1,c_1
dihedral_coeff	 6 aat  -16.16400  112.67000  110.77000  # c,c,c1,hc
dihedral_coeff	 7 aat  -18.15940  112.13000  109.77000  # c,c,n4,c
dihedral_coeff	 8 aat    0.00000  107.41000  113.28800  # c,c,o_2,c_1
dihedral_coeff	 9 aat    0.00000  111.27000  102.96950  # c,c,oc,cp
dihedral_coeff	10 aat  -22.04500  112.67000  112.67000  # c,c1,c,c1
dihedral_coeff	11 aat  -16.16400  112.67000  110.77000  # c,c1,c,hc
dihedral_coeff	12 aat   -8.01900  108.52950  123.14510  # c,c1,c_1,o_1
dihedral_coeff	13 aat    0.00000  108.52950  100.31820  # c,c1,c_1,o_2
dihedral_coeff	14 aat  -14.04430  109.77000  105.85000  # c,n4,c,hc
dihedral_coeff	15 aat    0.00000  113.28800  100.31820  # c,o_2,c_1,c1
dihedral_coeff	16 aat    0.00000  113.28800  120.79700  # c,o_2,c_1,o_1
dihedral_coeff	17 aat    0.00000  102.96950  123.42000  # c,oc,cp,cp
dihedral_coeff	18 aat  -16.16400  112.67000  110.77000  # c1,c,c,hc
dihedral_coeff	19 aat   -0.38010  112.67000  108.52950  # c1,c,c1,c_1
dihedral_coeff	20 aat  -16.16400  112.67000  110.77000  # c1,c,c1,hc
dihedral_coeff	21 aat   -5.36240  108.52950  110.77000  # c_1,c1,c,hc
dihedral_coeff	22 aat    0.00000  113.28800  107.68800  # c_1,o_2,c,hc
dihedral_coeff	23 aat    0.00000  118.90000  118.90000  # cp,cp,cp,cp
dihedral_coeff	24 aat   -4.81410  118.90000  117.94000  # cp,cp,cp,hc
dihedral_coeff	25 aat  -21.02470  118.90000  123.42000  # cp,cp,cp,oc
dihedral_coeff	26 aat    0.00000  102.96950  108.72800  # cp,oc,c,hc
dihedral_coeff	27 aat  -12.56400  110.77000  110.77000  # hc,c,c,hc
dihedral_coeff	28 aat  -18.92630  110.77000  112.13000  # hc,c,c,n4
dihedral_coeff	29 aat    0.00000  110.77000  107.41000  # hc,c,c,o_2
dihedral_coeff	30 aat  -20.20060  110.77000  111.27000  # hc,c,c,oc
dihedral_coeff	31 aat  -12.56400  110.77000  110.77000  # hc,c,c1,hc
dihedral_coeff	32 aat  -15.34960  107.73360  123.14510  # hc,c1,c_1,o_1
dihedral_coeff	33 aat    0.00000  107.73360  100.31820  # hc,c1,c_1,o_2
dihedral_coeff	34 aat    0.35980  117.94000  117.94000  # hc,cp,cp,hc
dihedral_coeff	35 aat    4.22960  117.94000  123.42000  # hc,cp,cp,oc
dihedral_coeff	36 aat    0.00000  112.13000  107.41000  # n4,c,c,o_2
dihedral_coeff	37 aat    0.00000  107.41000  111.27000  # o_2,c,c,oc

# BondBond13 Coeffs

dihedral_coeff	 1 bb13    0.00000    1.53000    1.53000  # c,c,c,c
dihedral_coeff	 2 bb13    0.00000    1.53000    1.10100  # c,c,c,hc
dihedral_coeff	 3 bb13    0.00000    1.53000    1.43000  # c,c,c,o_2
dihedral_coeff	 4 bb13    0.00000    1.53000    1.53000  # c,c,c1,c
dihedral_coeff	 5 bb13    0.00000    1.53000    1.52020  # c,c,c1,c_1
dihedral_coeff	 6 bb13    0.00000    1.53000    1.10100  # c,c,c1,hc
dihedral_coeff	 7 bb13    0.00000    1.53000    1.51850  # c,c,n4,c
dihedral_coeff	 8 bb13    0.00000    1.53000    1.36830  # c,c,o_2,c_1
dihedral_coeff	 9 bb13    0.00000    1.53000    1.37680  # c,c,oc,cp
dihedral_coeff	10 bb13    0.00000    1.53000    1.53000  # c,c1,c,c1
dihedral_coeff	11 bb13    0.00000    1.53000    1.10100  # c,c1,c,hc
dihedral_coeff	12 bb13    0.00000    1.53000    1.20200  # c,c1,c_1,o_1
dihedral_coeff	13 bb13    0.00000    1.53000    1.36830  # c,c1,c_1,o_2
dihedral_coeff	14 bb13    0.00000    1.51850    1.10100  # c,n4,c,hc
dihedral_coeff	15 bb13    0.00000    1.43000    1.52020  # c,o_2,c_1,c1
dihedral_coeff	16 bb13    0.00000    1.43000    1.20200  # c,o_2,c_1,o_1
dihedral_coeff	17 bb13    0.00000    1.42000    1.41700  # c,oc,cp,cp
dihedral_coeff	18 bb13    0.00000    1.53000    1.10100  # c1,c,c,hc
dihedral_coeff	19 bb13    0.00000    1.53000    1.52020  # c1,c,c1,c_1
dihedral_coeff	20 bb13    0.00000    1.53000    1.10100  # c1,c,c1,hc
dihedral_coeff	21 bb13    0.00000    1.52020    1.10100  # c_1,c1,c,hc
dihedral_coeff	22 bb13    0.00000    1.36830    1.10100  # c_1,o_2,c,hc
dihedral_coeff	23 bb13   53.00000    1.41700    1.41700  # cp,cp,cp,cp
dihedral_coeff	24 bb13   -6.27410    1.41700    1.09820  # cp,cp,cp,hc
dihedral_coeff	25 bb13   -2.24360    1.41700    1.37680  # cp,cp,cp,oc
dihedral_coeff	26 bb13    0.00000    1.37680    1.10100  # cp,oc,c,hc
dihedral_coeff	27 bb13    0.00000    1.10100    1.10100  # hc,c,c,hc
dihedral_coeff	28 bb13    0.00000    1.10100    1.51850  # hc,c,c,n4
dihedral_coeff	29 bb13    0.00000    1.10100    1.43000  # hc,c,c,o_2
dihedral_coeff	30 bb13    0.00000    1.10100    1.42000  # hc,c,c,oc
dihedral_coeff	31 bb13    0.00000    1.10100    1.10100  # hc,c,c1,hc
dihedral_coeff	32 bb13    0.00000    1.10100    1.20200  # hc,c1,c_1,o_1
dihedral_coeff	33 bb13    0.00000    1.10100    1.36830  # hc,c1,c_1,o_2
dihedral_coeff	34 bb13   -1.70770    1.09820    1.09820  # hc,cp,cp,hc
dihedral_coeff	35 bb13    2.05170    1.09820    1.37680  # hc,cp,cp,oc
dihedral_coeff	36 bb13    0.00000    1.51850    1.43000  # n4,c,c,o_2
dihedral_coeff	37 bb13    0.00000    1.43000    1.42000  # o_2,c,c,oc

# Improper Coeffs

improper_coeff	 1    0.00000    0.00000  # c,c,c,hc
improper_coeff	 2    0.00000    0.00000  # c,c,c1,hc
improper_coeff	 3    0.00000    0.00000  # c,c,hc,hc
improper_coeff	 4    0.00000    0.00000  # c,c,hc,o_2
improper_coeff	 5    0.00000    0.00000  # c,c,n4,hc
improper_coeff	 6    0.00000    0.00000  # c,c,oc,hc
improper_coeff	 7    0.00000    0.00000  # c,c1,c1,hc
improper_coeff	 8    0.00000    0.00000  # c,c1,hc,hc
improper_coeff	 9    0.00000    0.00000  # c,hc,hc,hc
improper_coeff	10    0.00000    0.00000  # c,hc,hc,n4
improper_coeff	11    0.00000    0.00000  # c,hc,hc,o_2
improper_coeff	12    0.00000    0.00000  # c,hc,hc,oc
improper_coeff	13    0.00000    0.00000  # c1,c,c,c_1
improper_coeff	14    0.00000    0.00000  # c1,c,c,hc
improper_coeff	15    0.00000    0.00000  # c1,c,c_1,hc
improper_coeff	16   46.92640    0.00000  # c_1,c1,o_2,o_1
improper_coeff	17    4.89120    0.00000  # cp,cp,cp,hc
improper_coeff	18   13.04210    0.00000  # cp,cp,cp,oc
improper_coeff	19    0.00000    0.00000  # n4,c,c,c

# AngleAngle Coeffs

improper_coeff	 1 aa   -1.31990   -1.31990    0.11840  112.67000  110.77000  110.77000  # c,c,c,hc
improper_coeff	 2 aa   -1.31990   -1.31990    0.11840  112.67000  110.77000  110.77000  # c,c,c1,hc
improper_coeff	 3 aa    0.27380   -0.48250    0.27380  110.77000  110.77000  107.66000  # c,c,hc,hc
improper_coeff	 4 aa    0.00000    0.00000    0.00000  110.77000  107.41000  107.68800  # c,c,hc,o_2
improper_coeff	 5 aa    7.02920    6.02740    4.24400  112.13000  110.77000  105.85000  # c,c,n4,hc
improper_coeff	 6 aa    0.16890    2.59260    3.91770  111.27000  110.77000  108.72800  # c,c,oc,hc
improper_coeff	 7 aa   -1.31990   -1.31990    0.11840  112.67000  110.77000  110.77000  # c,c1,c1,hc
improper_coeff	 8 aa    0.27380   -0.48250    0.27380  110.77000  110.77000  107.66000  # c,c1,hc,hc
improper_coeff	 9 aa   -0.31570   -0.31570   -0.31570  107.66000  107.66000  107.66000  # c,hc,hc,hc
improper_coeff	10 aa    3.54750    3.54750    7.33650  107.66000  105.85000  105.85000  # c,hc,hc,n4
improper_coeff	11 aa    0.00000    0.00000    0.00000  107.66000  107.68800  107.68800  # c,hc,hc,o_2
improper_coeff	12 aa    2.42590    2.42590    2.12830  107.66000  108.72800  108.72800  # c,hc,hc,oc
improper_coeff	13 aa    0.00000    0.00000    0.00000  112.67000  108.52950  108.52950  # c1,c,c,c_1
improper_coeff	14 aa   -1.31990   -1.31990    0.11840  112.67000  110.77000  110.77000  # c1,c,c,hc
improper_coeff	15 aa    2.04030   -1.82020    1.08270  108.52950  110.77000  107.73360  # c1,c,c_1,hc
improper_coeff	16 aa    0.00000    0.00000    0.00000  100.31820  123.14510  120.79700  # c_1,c1,o_2,o_1
improper_coeff	17 aa    0.00000    0.00000    0.00000  118.90000  117.94000  117.94000  # cp,cp,cp,hc
improper_coeff	18 aa    0.00000    0.00000    0.00000  118.90000  123.42000  123.42000  # cp,cp,cp,oc
improper_coeff	19 aa   -1.51550   -1.51550   -1.51550  109.77000  109.77000  109.77000  # n4,c,c,c

pair_modify     tail no
variable        ZHALF   equal 40.0     # половина целевой толщины плёнки, A
variable        ZBOX    equal 160.0    # полувысота ячейки (вакуум), A
variable        NZBOX   equal "-v_ZBOX"
variable        NZHALF  equal "-v_ZHALF"
variable        SOFTCUT equal 3.0
variable        SOFTA   equal 60.0
variable        NPUSH   equal 150000
variable        NHOLD   equal 50000

neighbor        2.0 bin
neigh_modify    delay 0 every 1 check yes

pair_style      soft $(v_SOFTCUT)
pair_style      soft 3
comm_modify     cutoff 8.0
pair_coeff      * * $(v_SOFTA)
pair_coeff      * * 60
min_modify dmax 0.1
min_style cg
minimize 1.0e-4 1.0e-5 5000 50000
Generated 0 of 36 mixed pair_coeff terms from geometric mixing rule
Neighbor list info ...
  update: every = 1 steps, delay = 0 steps, check = yes
  max neighbors/atom: 2000, page size: 100000
  master list distance cutoff = 5
  ghost atom cutoff = 8
  binsize = 5, bins = 17 17 64
  1 neighbor lists, perpetual/occasional/extra = 1 0 0
  (1) pair soft/kk, perpetual
      attributes: full, newton off, kokkos_device
      pair build: full/bin/kk/device
      stencil: full/bin/3d
      bin: kk/device
WARNING: Fix MINIMIZE/kk not compatible with sending data in Kokkos communication (src/KOKKOS/comm_kokkos.cpp:799)
WARNING: Fix with atom-based arrays not compatible with sending data in Kokkos communication, switching to classic exchange/border communication (src/KOKKOS/comm_kokkos.cpp:812)
WARNING: Fix MINIMIZE/kk not compatible with Kokkos sorting on device (src/KOKKOS/atom_kokkos.cpp:213)
WARNING: Fix with atom-based arrays not compatible with Kokkos sorting on device, switching to classic host sorting (src/KOKKOS/atom_kokkos.cpp:219)
Per MPI rank memory allocation (min/avg/max) = 94.73 | 94.73 | 94.73 Mbytes
   Step          Temp          E_pair         E_mol          TotEng         Press     
         0   0              729397.3       83646.382      813043.68      63835.926    
       556   0              90194.002      104549.06      194743.07      4967.9009    
Loop time of 21.185 on 1 procs for 556 steps with 35235 atoms

99.8% CPU use with 1 MPI tasks x 1 OpenMP threads

Minimization stats:
  Stopping criterion = energy tolerance
  Energy initial, next-to-last, final = 
      813043.679903146   194749.131494758   194743.065184163
  Force two-norm initial, final = 13564.59 1213.125
  Force max component initial, final = 211.86443 698.30846
  Final line search alpha, max atom move = 1.9236058e-05 0.013432702
  Iterations, force evaluations = 556 624

MPI task timing breakdown:
Section |  min time  |  avg time  |  max time  |%varavg| %total
---------------------------------------------------------------
Pair    | 3.226      | 3.226      | 3.226      |   0.0 | 15.23
Bond    | 9.7038     | 9.7038     | 9.7038     |   0.0 | 45.80
Neigh   | 0.85605    | 0.85605    | 0.85605    |   0.0 |  4.04
Comm    | 0.47347    | 0.47347    | 0.47347    |   0.0 |  2.23
Output  | 0          | 0          | 0          |   0.0 |  0.00
Modify  | 0          | 0          | 0          |   0.0 |  0.00
Other   |            | 6.926      |            |       | 32.69

Nlocal:          35235 ave       35235 max       35235 min
Histogram: 1 0 0 0 0 0 0 0 0 0
Nghost:          16012 ave       16012 max       16012 min
Histogram: 1 0 0 0 0 0 0 0 0 0
Neighs:              0 ave           0 max           0 min
Histogram: 1 0 0 0 0 0 0 0 0 0
FullNghs:  1.04372e+06 ave 1.04372e+06 max 1.04372e+06 min
Histogram: 1 0 0 0 0 0 0 0 0 0

Total # of neighbors = 1043722
Ave neighs/atom = 29.62174
Ave special neighs/atom = 5.7692635
Neighbor list builds = 19
Dangerous builds = 0
min_style cg
minimize 1.0e-8 1.0e-10 20000 200000
Generated 0 of 36 mixed pair_coeff terms from geometric mixing rule
WARNING: Fix MINIMIZE/kk not compatible with Kokkos sorting on device (src/KOKKOS/atom_kokkos.cpp:213)
WARNING: Fix with atom-based arrays not compatible with Kokkos sorting on device, switching to classic host sorting (src/KOKKOS/atom_kokkos.cpp:219)
Per MPI rank memory allocation (min/avg/max) = 95.65 | 95.65 | 95.65 Mbytes
   Step          Temp          E_pair         E_mol          TotEng         Press     
       556   0              90194.002      104549.06      194743.07      4967.9009    
       741   0              82502.378      99587.069      182089.45      3555.7381    
Loop time of 13.0446 on 1 procs for 185 steps with 35235 atoms

100.0% CPU use with 1 MPI tasks x 1 OpenMP threads

Minimization stats:
  Stopping criterion = linesearch alpha is zero
  Energy initial, next-to-last, final = 
      194743.065184163   182089.446781354   182089.446781354
  Force two-norm initial, final = 1213.125 151.49622
  Force max component initial, final = 698.30846 44.836093
  Final line search alpha, max atom move = 5.1929289e-13 2.3283064e-11
  Iterations, force evaluations = 185 424

MPI task timing breakdown:
Section |  min time  |  avg time  |  max time  |%varavg| %total
---------------------------------------------------------------
Pair    | 2.1481     | 2.1481     | 2.1481     |   0.0 | 16.47
Bond    | 6.9686     | 6.9686     | 6.9686     |   0.0 | 53.42
Neigh   | 0.26856    | 0.26856    | 0.26856    |   0.0 |  2.06
Comm    | 0.091826   | 0.091826   | 0.091826   |   0.0 |  0.70
Output  | 0          | 0          | 0          |   0.0 |  0.00
Modify  | 0          | 0          | 0          |   0.0 |  0.00
Other   |            | 3.568      |            |       | 27.35

Nlocal:          35235 ave       35235 max       35235 min
Histogram: 1 0 0 0 0 0 0 0 0 0
Nghost:          16040 ave       16040 max       16040 min
Histogram: 1 0 0 0 0 0 0 0 0 0
Neighs:              0 ave           0 max           0 min
Histogram: 1 0 0 0 0 0 0 0 0 0
FullNghs:  1.01191e+06 ave 1.01191e+06 max 1.01191e+06 min
Histogram: 1 0 0 0 0 0 0 0 0 0

Total # of neighbors = 1011912
Ave neighs/atom = 28.718944
Ave special neighs/atom = 5.7692635
Neighbor list builds = 6
Dangerous builds = 0

timestep        0.1
fix             1 all nve/limit 0.05
fix             2 all viscous 50.0
fix             3 all dt/reset 1 NULL 0.001 0.1
thermo          1000
run             10000
Generated 0 of 36 mixed pair_coeff terms from geometric mixing rule
Per MPI rank memory allocation (min/avg/max) = 92.1 | 92.1 | 92.1 Mbytes
   Step          Temp          E_pair         E_mol          TotEng         Press     
       741   0              82502.378      99587.069      182089.45      3555.7381    
      1000   0.0012826731   82502.309      99587.003      182089.45      3555.7193    
      2000   0.028107538    82500.791      99585.657      182089.4       3555.3099    
      3000   0.078969029    82497.537      99583.371      182089.2       3554.4789    
      4000   0.13905565     82493.009      99581.186      182088.8       3553.4147    
      5000   0.20160749     82487.675      99579.346      182088.2       3552.3219    
      6000   0.26759227     82481.939      99577.366      182087.41      3551.3746    
      7000   0.33696687     82476.151      99574.915      182086.46      3550.6894    
      8000   0.40332773     82470.606      99572.393      182085.36      3550.3033    
      9000   0.48150598     82465.465      99568.117      182084.15      3550.4021    
     10000   0.54724018     82460.549      99564.852      182082.87      3550.5881    
     10741   0.60280472     82456.929      99561.661      182081.9       3550.8157    
Loop time of 277.211 on 1 procs for 10000 steps with 35235 atoms

Performance: 0.003 ns/day, 7700.312 hours/ns, 36.074 timesteps/s, 1.271 Matom-step/s
100.0% CPU use with 1 MPI tasks x 1 OpenMP threads

MPI task timing breakdown:
Section |  min time  |  avg time  |  max time  |%varavg| %total
---------------------------------------------------------------
Pair    | 0.29883    | 0.29883    | 0.29883    |   0.0 |  0.11
Bond    | 187.77     | 187.77     | 187.77     |   0.0 | 67.74
Neigh   | 0          | 0          | 0          |   0.0 |  0.00
Comm    | 0.09142    | 0.09142    | 0.09142    |   0.0 |  0.03
Output  | 0.012164   | 0.012164   | 0.012164   |   0.0 |  0.00
Modify  | 74.656     | 74.656     | 74.656     |   0.0 | 26.93
Other   |            | 14.38      |            |       |  5.19

Nlocal:          35235 ave       35235 max       35235 min
Histogram: 1 0 0 0 0 0 0 0 0 0
Nghost:          16042 ave       16042 max       16042 min
Histogram: 1 0 0 0 0 0 0 0 0 0
Neighs:              0 ave           0 max           0 min
Histogram: 1 0 0 0 0 0 0 0 0 0
FullNghs:  1.00948e+06 ave 1.00948e+06 max 1.00948e+06 min
Histogram: 1 0 0 0 0 0 0 0 0 0

Total # of neighbors = 1009478
Ave neighs/atom = 28.649865
Ave special neighs/atom = 5.7692635
Neighbor list builds = 0
Dangerous builds = 0
# fix_modify      1 energy yes
unfix           1
unfix           2
unfix           3

velocity        all zero linear
velocity        all zero angular

velocity        all create 10 12345 mom yes rot yes dist gaussian

timestep        0.1
fix             rNVT all nvt temp 300.0 300.0 50.0
thermo          500
run             10000
Generated 0 of 36 mixed pair_coeff terms from geometric mixing rule
Per MPI rank memory allocation (min/avg/max) = 92.1 | 92.1 | 92.1 Mbytes
   Step          Temp          E_pair         E_mol          TotEng         Press     
     10741   10             82456.929      99561.661      183068.85      3571.9173    
     11000   8.1173839      82436.29       99828.705      183117.53      3542.3794    
     11500   30.880319      81267.093      99006.833      183517.16      3354.065     
     12000   64.694581      79675.692      98179.862      184650.16      3085.0263    
     12500   105.4123       78123.235      97521.198      186715.45      2771.8329    
     13000   150.48137      76947.984      96996.114      189748.53      2532.6842    
     13500   200.52847      75618.938      96910.49       193590.1       2229.3016    
     14000   248.92372      74416.608      97333.59       197893.63      1924.8496    
     14500   289.47209      74219.261      97230.885      201852.2       1817.8981    
     15000   317.14412      73602.669      97375.512      204286.51      1662.856     
     15500   313.62837      72951.186      97427.876      203318.15      1439.3892    
     16000   300.76157      72216.115      96898.595      200702.45      1244.5037    
     16500   293.36481      71828.151      96422.69       199061.73      1130.3343    
     17000   296.71613      71133.5        96579.084      198875.45      958.62125    
     17500   305.64857      70807.518      96358.426      199266.95      989.74795    
     18000   302.48506      71263.135      95761.433      198793.32      1062.7718    
     18500   297.74132      70964.509      95509.934      197744.98      939.0908     
     19000   297.07517      70833.292      95001.632      197035.5       917.34791    
     19500   299.23373      70651.124      94851.083      196929.49      925.68301    
     20000   301.17252      70504.204      94819.189      196954.3       852.04499    
     20500   301.10651      70284.548      94850.288      196758.81      826.44735    
     20741   301.47832      70342.857      94582.361      196588.24      796.00638    
Loop time of 302.431 on 1 procs for 10000 steps with 35235 atoms

Performance: 0.286 ns/day, 84.009 hours/ns, 33.065 timesteps/s, 1.165 Matom-step/s
100.0% CPU use with 1 MPI tasks x 1 OpenMP threads

MPI task timing breakdown:
Section |  min time  |  avg time  |  max time  |%varavg| %total
---------------------------------------------------------------
Pair    | 0.39532    | 0.39532    | 0.39532    |   0.0 |  0.13
Bond    | 161.13     | 161.13     | 161.13     |   0.0 | 53.28
Neigh   | 2.2655     | 2.2655     | 2.2655     |   0.0 |  0.75
Comm    | 1.6129     | 1.6129     | 1.6129     |   0.0 |  0.53
Output  | 0.026267   | 0.026267   | 0.026267   |   0.0 |  0.01
Modify  | 101.56     | 101.56     | 101.56     |   0.0 | 33.58
Other   |            | 35.44      |            |       | 11.72

Nlocal:          35235 ave       35235 max       35235 min
Histogram: 1 0 0 0 0 0 0 0 0 0
Nghost:          16128 ave       16128 max       16128 min
Histogram: 1 0 0 0 0 0 0 0 0 0
Neighs:              0 ave           0 max           0 min
Histogram: 1 0 0 0 0 0 0 0 0 0
FullNghs:       751468 ave      751468 max      751468 min
Histogram: 1 0 0 0 0 0 0 0 0 0

Total # of neighbors = 751468
Ave neighs/atom = 21.327317
Ave special neighs/atom = 5.7692635
Neighbor list builds = 54
Dangerous builds = 0

timestep        0.25
run             10000
Generated 0 of 36 mixed pair_coeff terms from geometric mixing rule
Per MPI rank memory allocation (min/avg/max) = 92.08 | 92.08 | 92.08 Mbytes
   Step          Temp          E_pair         E_mol          TotEng         Press     
     20741   301.47832      70342.857      94582.361      196588.24      796.00638    
     21000   296.30299      70168.621      94698.581      195986.68      733.83452    
     21500   303.1148       70117.899      94658.128      196610.92      792.10733    
     22000   295.16788      69823.612      95044.115      195867.99      695.40871    
     22500   302.69375      69947.135      94606.389      196344.2       723.30307    
     23000   297.98143      69295.629      94977.244      195568.63      589.51434    
     23500   302.86168      69539.987      95037.48       196385.78      651.8197     
     24000   299.05563      69233.197      94833.563      195475.33      493.89169    
     24500   300.71192      69064.434      94794.615      195441.58      506.79467    
     25000   299.02922      69204.374      94612.817      195222.99      549.52919    
     25500   299.12629      68616.21       94819.73       194851.94      417.61872    
     26000   302.91585      68683.422      94408.06       194905.48      501.75322    
     26500   297.91006      68373.805      94618.009      194280.07      411.64595    
     27000   301.44566      68073.421      94926.466      194659.48      445.53593    
     27500   298.06035      67855.711      94820.181      193979.94      281.57884    
     28000   300.64136      67608.248      95050.803      194234.17      218.8949     
     28500   298.77142      67779.469      94687.443      193845.64      291.24385    
     29000   297.68632      67514.959      94809.913      193589.63      231.60073    
     29500   300.24276      67472.134      94780.547      193785.94      244.61903    
     30000   299.73024      67230.081      94507.399      193216.91      191.94061    
     30500   299.38769      67350.948      94471.975      193266.37      210.89187    
     30741   301.87617      67246.27       94746.14       193697.21      268.36809    
Loop time of 301.32 on 1 procs for 10000 steps with 35235 atoms

Performance: 0.717 ns/day, 33.480 hours/ns, 33.187 timesteps/s, 1.169 Matom-step/s
100.0% CPU use with 1 MPI tasks x 1 OpenMP threads

MPI task timing breakdown:
Section |  min time  |  avg time  |  max time  |%varavg| %total
---------------------------------------------------------------
Pair    | 0.42164    | 0.42164    | 0.42164    |   0.0 |  0.14
Bond    | 160.29     | 160.29     | 160.29     |   0.0 | 53.20
Neigh   | 5.4522     | 5.4522     | 5.4522     |   0.0 |  1.81
Comm    | 2.1777     | 2.1777     | 2.1777     |   0.0 |  0.72
Output  | 0.035791   | 0.035791   | 0.035791   |   0.0 |  0.01
Modify  | 100.16     | 100.16     | 100.16     |   0.0 | 33.24
Other   |            | 32.78      |            |       | 10.88

Nlocal:          35235 ave       35235 max       35235 min
Histogram: 1 0 0 0 0 0 0 0 0 0
Nghost:          16083 ave       16083 max       16083 min
Histogram: 1 0 0 0 0 0 0 0 0 0
Neighs:              0 ave           0 max           0 min
Histogram: 1 0 0 0 0 0 0 0 0 0
FullNghs:       661954 ave      661954 max      661954 min
Histogram: 1 0 0 0 0 0 0 0 0 0

Total # of neighbors = 661954
Ave neighs/atom = 18.786831
Ave special neighs/atom = 5.7692635
Neighbor list builds = 130
Dangerous builds = 0
timestep        0.5
run             10000
Generated 0 of 36 mixed pair_coeff terms from geometric mixing rule
Per MPI rank memory allocation (min/avg/max) = 92.06 | 92.06 | 92.06 Mbytes
   Step          Temp          E_pair         E_mol          TotEng         Press     
     30741   301.87617      67246.27       94746.14       193697.21      268.36809    
     31000   298.56447      67247.746      94392.957      192997.69      223.6544     
     31500   296.58341      67202.239      94450.062      192801.23      231.27862    
     32000   299.6546       66935.94       94495.732      192903.16      242.62382    
     32500   301.20295      66832.392      94397.139      192863.63      245.24697    
     33000   300.44871      66697.523      94492.531      192744.94      218.92891    
     33500   299.30234      66202.554      94899.096      192536.13      36.368207    
     34000   299.65757      66487.29       94494.596      192453.68      99.852261    
     34500   301.2125       66339.764      94318.948      192293.81      116.80098    
     35000   300.14827      66109.983      94359.182      191992.49      114.07574    
     35500   298.95822      66392.758      94144.575      191935.68      198.44294    
     36000   299.47115      66042.608      94356.007      191850.83      86.716773    
     36500   299.6683       66325.884      94358.018      192156.82      197.73851    
     37000   299.90921      65850.087      94355.022      191703.33      54.999625    
     37500   300.40724      66036.916      94027.264      191614.71      197.15095    
     38000   298.56129      65975.657      94144.866      191477.18      164.94503    
     38500   300.411        66174.167      93766.324      191491.41      289.33173    
     39000   300.45857      65780.517      93944.612      191281.05      81.673445    
     39500   301.47938      65495.866      94334.771      191493.77      19.06651     
     40000   300.60867      65786.055      94135.37       191493.11      139.29818    
     40500   299.47468      65479.472      94289.085      191221.14      106.03152    
     40741   300.60927      65187.903      94665.541      191425.19     -29.998119    
Loop time of 301.309 on 1 procs for 10000 steps with 35235 atoms

Performance: 1.434 ns/day, 16.739 hours/ns, 33.188 timesteps/s, 1.169 Matom-step/s
100.0% CPU use with 1 MPI tasks x 1 OpenMP threads

MPI task timing breakdown:
Section |  min time  |  avg time  |  max time  |%varavg| %total
---------------------------------------------------------------
Pair    | 0.45445    | 0.45445    | 0.45445    |   0.0 |  0.15
Bond    | 157        | 157        | 157        |   0.0 | 52.11
Neigh   | 9.1633     | 9.1633     | 9.1633     |   0.0 |  3.04
Comm    | 3.9821     | 3.9821     | 3.9821     |   0.0 |  1.32
Output  | 0.026033   | 0.026033   | 0.026033   |   0.0 |  0.01
Modify  | 97.181     | 97.181     | 97.181     |   0.0 | 32.25
Other   |            | 33.5       |            |       | 11.12

Nlocal:          35235 ave       35235 max       35235 min
Histogram: 1 0 0 0 0 0 0 0 0 0
Nghost:          17786 ave       17786 max       17786 min
Histogram: 1 0 0 0 0 0 0 0 0 0
Neighs:              0 ave           0 max           0 min
Histogram: 1 0 0 0 0 0 0 0 0 0
FullNghs:       629712 ave      629712 max      629712 min
Histogram: 1 0 0 0 0 0 0 0 0 0

Total # of neighbors = 629712
Ave neighs/atom = 17.871775
Ave special neighs/atom = 5.7692635
Neighbor list builds = 216
Dangerous builds = 0
unfix		rNVT

velocity        all zero linear
velocity        all zero angular

compute         ZMIN all reduce min z
compute         ZMAX all reduce max z
thermo_style    custom step temp press lz pe atoms c_ZMIN c_ZMAX
run             0 post no
WARNING: No fixes with time integration, atoms won't move
For more information see https://docs.lammps.org/err0028 (src/verlet.cpp:60)
Generated 0 of 36 mixed pair_coeff terms from geometric mixing rule
Per MPI rank memory allocation (min/avg/max) = 94.79 | 94.79 | 94.79 Mbytes
   Step          Temp          Press            Lz           PotEng        Atoms        c_ZMIN         c_ZMAX    
     40741   299.32162     -32.889574      320            159853.44          35235  -159.99547      159.9888     
Loop time of 0.00222024 on 1 procs for 0 steps with 35235 atoms

variable        DZSHIFT equal "-(c_ZMIN+c_ZMAX)/2.0"
displace_atoms  all move 0.0 0.0 $(v_DZSHIFT) units box
displace_atoms  all move 0.0 0.0 0.0033338293771834098984 units box
Displacing atoms ...

change_box      all boundary p p f
Changing box ...
WARNING: Resetting image flags for non-periodic dimensions (src/domain.cpp:2161)
run             0 post no
WARNING: No fixes with time integration, atoms won't move
For more information see https://docs.lammps.org/err0028 (src/verlet.cpp:60)
Generated 0 of 36 mixed pair_coeff terms from geometric mixing rule
WARNING: Bond/angle/dihedral extent > half of periodic box length (src/domain.cpp:1174)
Per MPI rank memory allocation (min/avg/max) = 94.72 | 94.72 | 94.72 Mbytes
   Step          Temp          Press            Lz           PotEng        Atoms        c_ZMIN         c_ZMAX    
     40741   299.32162     -2.3807425e+13  320            5.5420143e+14      35235  -159.99213      159.99213    
WARNING: Bond/angle/dihedral extent > half of periodic box length (src/domain.cpp:1174)
Loop time of 0.00235395 on 1 procs for 0 steps with 35235 atoms


variable        ZB0 equal "c_ZMIN-5.0"
variable        ZT0 equal "c_ZMAX+5.0"
variable        ZB0F internal $(v_ZB0)
variable        ZB0F internal -164.99213379770500865
variable        ZT0F internal $(v_ZT0)
variable        ZT0F internal 164.99213379770500865
variable        z_bot equal "ramp(v_ZB0F,v_NZHALF)"
variable        z_top equal "ramp(v_ZT0F,v_ZHALF)"

fix             wall_b all wall/reflect zlo v_z_bot units box
fix             wall_t all wall/reflect zhi v_z_top units box

fix             1 all langevin 300.0 300.0 100.0 48279
fix             2 all nve

variable        film_dens equal "mass(all)/(0.6022141*lx*ly*(2.0*v_ZHALF))"

thermo          2000
thermo_style    custom step temp press lz pe atoms c_ZMIN c_ZMAX v_film_dens
dump            TRJ all custom 10000 dump.soft.lammpstrj.gz id mol type q x y z  ### FIX 11
timestep	0.5
run             ${NPUSH}
run             150000
Generated 0 of 36 mixed pair_coeff terms from geometric mixing rule
WARNING: Bond/angle/dihedral extent > half of periodic box length (src/domain.cpp:1174)
Per MPI rank memory allocation (min/avg/max) = 94.72 | 94.72 | 94.72 Mbytes
   Step          Temp          Press            Lz           PotEng        Atoms        c_ZMIN         c_ZMAX      v_film_dens  
     40741   299.32162     -2.3807425e+13  320            5.5420143e+14      35235  -159.99213      159.99213      0.71417013   
ERROR on proc 0: Bond atoms missing at step 40742
For more information see https://docs.lammps.org/err0005 (src/KOKKOS/neigh_bond_kokkos.cpp:262)
